
! ################
! COMMON INSTANCES - ENERGYPLUS VERSION
! ################

Version,
  24.2;                                   !- Version Identifier

! ################
! COMMON INSTANCES - SIMULATION FEATURES
! ################

Timestep,
  4;                         !- Number of Timesteps per Hour

SimulationControl,
  Yes,                                    !- Do Zone Sizing Calculation
  Yes,                                    !- Do System Sizing Calculation
  Yes,                                    !- Do Plant Sizing Calculation
  No,                                     !- Run Simulation for Sizing Periods
  Yes,                                    !- Run Simulation for Weather File Run Periods
  No,                                     !- Do HVAC Sizing Simulation for Sizing Periods
  1;                                      !- Maximum Number of HVAC Sizing Simulation Passes

ConvergenceLimits,
  2,                                      !- Minimum System Timestep {minutes}
  25,                                     !- Maximum HVAC Iterations
  2,                           !- Minimum Plant Iterations
  8;                           !- Maximum Plant Iterations

HeatBalanceAlgorithm,
  ConductionTransferFunction,             !- Algorithm
  200;                                    !- Surface Temperature Upper Limit {C}

RunPeriod,
  DefaultRunPeriod,                       !- Name
  1,                                      !- Begin Month
  1,                                      !- Begin Day of Month
  2006,                                   !- Begin Year
  12,                                     !- End Month
  31,                                     !- End Day of Month
  2006,                                   !- End Year
  Sunday,                                 !- Day of Week for Start Day
  No,                                     !- Use Weather File Holidays and Special Days
  No,                                     !- Use Weather File Daylight Saving Period
  No,                                     !- Apply Weekend Holiday Rule
  Yes,                                    !- Use Weather File Rain Indicators
  Yes;                                    !- Use Weather File Snow Indicators

ShadowCalculation,
  PolygonClipping,                        !- Shading Calculation Method
  Periodic,                               !- Shading Calculation Update Frequency Method
  7,                                      !- Shading Calculation Update Frequency
  15000,                                  !- Maximum Figures in Shadow Overlap Calculations
  SutherlandHodgman,                      !- Polygon Clipping Algorithm
  512,                                    !- Pixel Counting Resolution
  SimpleSkyDiffuseModeling,               !- Sky Diffuse Modeling Algorithm
  No,                                     !- Output External Shading Calculation Results
  No,                                     !- Disable Self-Shading Within Shading Zone Groups
  No;                                     !- Disable Self-Shading From Shading Zone Groups to Other Zones

SurfaceConvectionAlgorithm:Inside,
  TARP;                                   !- Algorithm

SurfaceConvectionAlgorithm:Outside,
  DOE-2;                                  !- Algorithm

Sizing:Parameters,
  1.5,            !- Heating Sizing Factor (1.35)
  1.15;                                   !- Cooling Sizing Factor

ZoneAirContaminantBalance,
  No;                                     !- Carbon Dioxide Concentration

ZoneAirHeatBalanceAlgorithm,
  AnalyticalSolution,                     !- Algorithm
  No,                                     !- Do Space Heat Balance for Sizing
  No;                                     !- Do Space Heat Balance for Simulation

GlobalGeometryRules,
  UpperLeftCorner,                        !- Starting Vertex Position
  Counterclockwise,                       !- Vertex Entry Direction
  Relative,                               !- Coordinate System
  Relative,                               !- Daylighting Reference Point Coordinate System
  Relative;                               !- Rectangular Surface Coordinate System

! ################
! COMMON INSTANCES - BUILDING AND LOCATION FEATURES
! ################

Building,
  Building,                               !- Name
  0,                        !- North Axis {deg}
  ,                                       !- Terrain
  0.04,                                   !- Loads Convergence Tolerance Value {W}
  0.4,                                    !- Temperature Convergence Tolerance Value {deltaC}
  FullExterior,                           !- Solar Distribution
  25,                                     !- Maximum Number of Warmup Days
  1;                                      !- Minimum Number of Warmup Days

Site:Location,
  Tesserete,                              !- Name
  46.067,                                 !- Latitude {deg}
  8.966,                                  !- Longitude {deg}
  1,                                      !- Time Zone {hr}
  529;                                    !- Elevation {m}

SITE:GROUNDTEMPERATURE:BUILDINGSURFACE,
    18,                       !- January Ground Temperature
    18,                       !- February Ground Temperature
    18,                       !- March Ground Temperature
    18,                       !- April Ground Temperature
    18,                       !- May Ground Temperature
    18,                       !- June Ground Temperature
    18,                       !- July Ground Temperature
    18,                       !- August Ground Temperature
    18,                       !- September Ground Temperature
    18,                       !- October Ground Temperature
    18,                       !- November Ground Temperature
    18;                       !- December Ground Temperature

SITE:GROUNDTEMPERATURE:FCFACTORMETHOD,
    1.6,                      !- January Ground Temperature
    0.7,                      !- February Ground Temperature
    2.3,                      !- March Ground Temperature
    4.8,                      !- April Ground Temperature
    11.2,                     !- May Ground Temperature
    16.2,                     !- June Ground Temperature
    19.6,                     !- July Ground Temperature
    20.6,                     !- August Ground Temperature
    18.9,                     !- September Ground Temperature
    15,                       !- October Ground Temperature
    9.8,                      !- November Ground Temperature
    5;                        !- December Ground Temperature

SITE:GROUNDTEMPERATURE:SHALLOW,
    14,                       !- January Surface Ground Temperature
    14,                       !- February Surface Ground Temperature
    14,                       !- March Surface Ground Temperature
    14,                       !- April Surface Ground Temperature
    14,                       !- May Surface Ground Temperature
    14,                       !- June Surface Ground Temperature
    14,                       !- July Surface Ground Temperature
    14,                       !- August Surface Ground Temperature
    14,                       !- September Surface Ground Temperature
    14,                       !- October Surface Ground Temperature
    14,                       !- November Surface Ground Temperature
    14;                       !- December Surface Ground Temperature

SITE:GROUNDTEMPERATURE:DEEP,
    14,                       !- January Deep Ground Temperature
    14,                       !- February Deep Ground Temperature
    14,                       !- March Deep Ground Temperature
    14,                       !- April Deep Ground Temperature
    14,                       !- May Deep Ground Temperature
    14,                       !- June Deep Ground Temperature
    14,                       !- July Deep Ground Temperature
    14,                       !- August Deep Ground Temperature
    14,                       !- September Deep Ground Temperature
    14,                       !- October Deep Ground Temperature
    14,                       !- November Deep Ground Temperature
    14;                       !- December Deep Ground Temperature

! ################
! COMMON INSTANCES - DESIGN DAYS
! ################

SizingPeriod:DesignDay,
  Zuerich-Kloten Ann Clg .4% Condns DB=>MWB, !- Name
  7,                                      !- Month
  21,                                     !- Day of Month
  SummerDesignDay,                        !- Day Type
  30,                                     !- Maximum Dry-Bulb Temperature {C}
  11,                                     !- Daily Dry-Bulb Temperature Range {deltaC}
  DefaultMultipliers,                     !- Dry-Bulb Temperature Range Modifier Type
  ,                                       !- Dry-Bulb Temperature Range Modifier Day Schedule Name
  Wetbulb,                                !- Humidity Condition Type
  19.9,                                   !- Wetbulb or DewPoint at Maximum Dry-Bulb {C}
  ,                                       !- Humidity Condition Day Schedule Name
  ,                                       !- Humidity Ratio at Maximum Dry-Bulb {kgWater/kgDryAir}
  ,                                       !- Enthalpy at Maximum Dry-Bulb {J/kg}
  ,                                       !- Daily Wet-Bulb Temperature Range {deltaC}
  96196,                                  !- Barometric Pressure {Pa}
  2.5,                                    !- Wind Speed {m/s}
  240,                                    !- Wind Direction {deg}
  No,                                     !- Rain Indicator
  No,                                     !- Snow Indicator
  No,                                     !- Daylight Saving Time Indicator
  ASHRAETau,                              !- Solar Model Indicator
  ,                                       !- Beam Solar Day Schedule Name
  ,                                       !- Diffuse Solar Day Schedule Name
  0.35,                                   !- ASHRAE Clear Sky Optical Depth for Beam Irradiance (taub) {dimensionless}
  2.354,                                  !- ASHRAE Clear Sky Optical Depth for Diffuse Irradiance (taud) {dimensionless}
  ,                                       !- Sky Clearness
  ,                                       !- Maximum Number Warmup Days
  FullResetAtBeginEnvironment;            !- Begin Environment Reset Mode

SizingPeriod:DesignDay,
  Zuerich-Kloten Ann Clg .4% Condns DP=>MDB, !- Name
  7,                                      !- Month
  21,                                     !- Day of Month
  SummerDesignDay,                        !- Day Type
  23.1,                                   !- Maximum Dry-Bulb Temperature {C}
  11,                                     !- Daily Dry-Bulb Temperature Range {deltaC}
  DefaultMultipliers,                     !- Dry-Bulb Temperature Range Modifier Type
  ,                                       !- Dry-Bulb Temperature Range Modifier Day Schedule Name
  Dewpoint,                               !- Humidity Condition Type
  18.2,                                   !- Wetbulb or DewPoint at Maximum Dry-Bulb {C}
  ,                                       !- Humidity Condition Day Schedule Name
  ,                                       !- Humidity Ratio at Maximum Dry-Bulb {kgWater/kgDryAir}
  ,                                       !- Enthalpy at Maximum Dry-Bulb {J/kg}
  ,                                       !- Daily Wet-Bulb Temperature Range {deltaC}
  96196,                                  !- Barometric Pressure {Pa}
  2.5,                                    !- Wind Speed {m/s}
  240,                                    !- Wind Direction {deg}
  No,                                     !- Rain Indicator
  No,                                     !- Snow Indicator
  No,                                     !- Daylight Saving Time Indicator
  ASHRAETau,                              !- Solar Model Indicator
  ,                                       !- Beam Solar Day Schedule Name
  ,                                       !- Diffuse Solar Day Schedule Name
  0.35,                                   !- ASHRAE Clear Sky Optical Depth for Beam Irradiance (taub) {dimensionless}
  2.354,                                  !- ASHRAE Clear Sky Optical Depth for Diffuse Irradiance (taud) {dimensionless}
  ,                                       !- Sky Clearness
  ,                                       !- Maximum Number Warmup Days
  FullResetAtBeginEnvironment;            !- Begin Environment Reset Mode

SizingPeriod:DesignDay,
  Zuerich-Kloten Ann Clg .4% Condns Enth=>MDB, !- Name
  7,                                      !- Month
  21,                                     !- Day of Month
  SummerDesignDay,                        !- Day Type
  27.9,                                   !- Maximum Dry-Bulb Temperature {C}
  11,                                     !- Daily Dry-Bulb Temperature Range {deltaC}
  DefaultMultipliers,                     !- Dry-Bulb Temperature Range Modifier Type
  ,                                       !- Dry-Bulb Temperature Range Modifier Day Schedule Name
  Enthalpy,                               !- Humidity Condition Type
  ,                                       !- Wetbulb or DewPoint at Maximum Dry-Bulb {C}
  ,                                       !- Humidity Condition Day Schedule Name
  ,                                       !- Humidity Ratio at Maximum Dry-Bulb {kgWater/kgDryAir}
  61600,                                  !- Enthalpy at Maximum Dry-Bulb {J/kg}
  ,                                       !- Daily Wet-Bulb Temperature Range {deltaC}
  96196,                                  !- Barometric Pressure {Pa}
  2.5,                                    !- Wind Speed {m/s}
  240,                                    !- Wind Direction {deg}
  No,                                     !- Rain Indicator
  No,                                     !- Snow Indicator
  No,                                     !- Daylight Saving Time Indicator
  ASHRAETau,                              !- Solar Model Indicator
  ,                                       !- Beam Solar Day Schedule Name
  ,                                       !- Diffuse Solar Day Schedule Name
  0.35,                                   !- ASHRAE Clear Sky Optical Depth for Beam Irradiance (taub) {dimensionless}
  2.354,                                  !- ASHRAE Clear Sky Optical Depth for Diffuse Irradiance (taud) {dimensionless}
  ,                                       !- Sky Clearness
  ,                                       !- Maximum Number Warmup Days
  FullResetAtBeginEnvironment;            !- Begin Environment Reset Mode

SizingPeriod:DesignDay,
  Zuerich-Kloten Ann Clg .4% Condns WB=>MDB, !- Name
  7,                                      !- Month
  21,                                     !- Day of Month
  SummerDesignDay,                        !- Day Type
  27.8,                                   !- Maximum Dry-Bulb Temperature {C}
  11,                                     !- Daily Dry-Bulb Temperature Range {deltaC}
  DefaultMultipliers,                     !- Dry-Bulb Temperature Range Modifier Type
  ,                                       !- Dry-Bulb Temperature Range Modifier Day Schedule Name
  Wetbulb,                                !- Humidity Condition Type
  20.7,                                   !- Wetbulb or DewPoint at Maximum Dry-Bulb {C}
  ,                                       !- Humidity Condition Day Schedule Name
  ,                                       !- Humidity Ratio at Maximum Dry-Bulb {kgWater/kgDryAir}
  ,                                       !- Enthalpy at Maximum Dry-Bulb {J/kg}
  ,                                       !- Daily Wet-Bulb Temperature Range {deltaC}
  96196,                                  !- Barometric Pressure {Pa}
  2.5,                                    !- Wind Speed {m/s}
  240,                                    !- Wind Direction {deg}
  No,                                     !- Rain Indicator
  No,                                     !- Snow Indicator
  No,                                     !- Daylight Saving Time Indicator
  ASHRAETau,                              !- Solar Model Indicator
  ,                                       !- Beam Solar Day Schedule Name
  ,                                       !- Diffuse Solar Day Schedule Name
  0.35,                                   !- ASHRAE Clear Sky Optical Depth for Beam Irradiance (taub) {dimensionless}
  2.354,                                  !- ASHRAE Clear Sky Optical Depth for Diffuse Irradiance (taud) {dimensionless}
  ,                                       !- Sky Clearness
  ,                                       !- Maximum Number Warmup Days
  FullResetAtBeginEnvironment;            !- Begin Environment Reset Mode

SizingPeriod:DesignDay,
  Zuerich-Kloten Ann Htg 99.6% Condns DB, !- Name
  1,                                      !- Month
  21,                                     !- Day of Month
  WinterDesignDay,                        !- Day Type
  -9.2,                                   !- Maximum Dry-Bulb Temperature {C}
  0,                                      !- Daily Dry-Bulb Temperature Range {deltaC}
  DefaultMultipliers,                     !- Dry-Bulb Temperature Range Modifier Type
  ,                                       !- Dry-Bulb Temperature Range Modifier Day Schedule Name
  Wetbulb,                                !- Humidity Condition Type
  -9.2,                                   !- Wetbulb or DewPoint at Maximum Dry-Bulb {C}
  ,                                       !- Humidity Condition Day Schedule Name
  ,                                       !- Humidity Ratio at Maximum Dry-Bulb {kgWater/kgDryAir}
  ,                                       !- Enthalpy at Maximum Dry-Bulb {J/kg}
  ,                                       !- Daily Wet-Bulb Temperature Range {deltaC}
  96196,                                  !- Barometric Pressure {Pa}
  1.9,                                    !- Wind Speed {m/s}
  30,                                     !- Wind Direction {deg}
  No,                                     !- Rain Indicator
  No,                                     !- Snow Indicator
  No,                                     !- Daylight Saving Time Indicator
  ASHRAEClearSky,                         !- Solar Model Indicator
  ,                                       !- Beam Solar Day Schedule Name
  ,                                       !- Diffuse Solar Day Schedule Name
  ,                                       !- ASHRAE Clear Sky Optical Depth for Beam Irradiance (taub) {dimensionless}
  ,                                       !- ASHRAE Clear Sky Optical Depth for Diffuse Irradiance (taud) {dimensionless}
  0,                                      !- Sky Clearness
  ,                                       !- Maximum Number Warmup Days
  FullResetAtBeginEnvironment;            !- Begin Environment Reset Mode

SizingPeriod:DesignDay,
  Zuerich-Kloten Ann Htg Wind 99.6% Condns WS=>MCDB, !- Name
  1,                                      !- Month
  21,                                     !- Day of Month
  WinterDesignDay,                        !- Day Type
  9,                                      !- Maximum Dry-Bulb Temperature {C}
  0,                                      !- Daily Dry-Bulb Temperature Range {deltaC}
  DefaultMultipliers,                     !- Dry-Bulb Temperature Range Modifier Type
  ,                                       !- Dry-Bulb Temperature Range Modifier Day Schedule Name
  Wetbulb,                                !- Humidity Condition Type
  9,                                      !- Wetbulb or DewPoint at Maximum Dry-Bulb {C}
  ,                                       !- Humidity Condition Day Schedule Name
  ,                                       !- Humidity Ratio at Maximum Dry-Bulb {kgWater/kgDryAir}
  ,                                       !- Enthalpy at Maximum Dry-Bulb {J/kg}
  ,                                       !- Daily Wet-Bulb Temperature Range {deltaC}
  96196,                                  !- Barometric Pressure {Pa}
  11.1,                                   !- Wind Speed {m/s}
  30,                                     !- Wind Direction {deg}
  No,                                     !- Rain Indicator
  No,                                     !- Snow Indicator
  No,                                     !- Daylight Saving Time Indicator
  ASHRAEClearSky,                         !- Solar Model Indicator
  ,                                       !- Beam Solar Day Schedule Name
  ,                                       !- Diffuse Solar Day Schedule Name
  ,                                       !- ASHRAE Clear Sky Optical Depth for Beam Irradiance (taub) {dimensionless}
  ,                                       !- ASHRAE Clear Sky Optical Depth for Diffuse Irradiance (taud) {dimensionless}
  0,                                      !- Sky Clearness
  ,                                       !- Maximum Number Warmup Days
  FullResetAtBeginEnvironment;            !- Begin Environment Reset Mode

SizingPeriod:DesignDay,
  Zuerich-Kloten Ann Hum_n 99.6% Condns DP=>MCDB, !- Name
  1,                                      !- Month
  21,                                     !- Day of Month
  WinterDesignDay,                        !- Day Type
  -7.7,                                   !- Maximum Dry-Bulb Temperature {C}
  0,                                      !- Daily Dry-Bulb Temperature Range {deltaC}
  DefaultMultipliers,                     !- Dry-Bulb Temperature Range Modifier Type
  ,                                       !- Dry-Bulb Temperature Range Modifier Day Schedule Name
  Dewpoint,                               !- Humidity Condition Type
  -12.1,                                  !- Wetbulb or DewPoint at Maximum Dry-Bulb {C}
  ,                                       !- Humidity Condition Day Schedule Name
  ,                                       !- Humidity Ratio at Maximum Dry-Bulb {kgWater/kgDryAir}
  ,                                       !- Enthalpy at Maximum Dry-Bulb {J/kg}
  ,                                       !- Daily Wet-Bulb Temperature Range {deltaC}
  96196,                                  !- Barometric Pressure {Pa}
  1.9,                                    !- Wind Speed {m/s}
  30,                                     !- Wind Direction {deg}
  No,                                     !- Rain Indicator
  No,                                     !- Snow Indicator
  No,                                     !- Daylight Saving Time Indicator
  ASHRAEClearSky,                         !- Solar Model Indicator
  ,                                       !- Beam Solar Day Schedule Name
  ,                                       !- Diffuse Solar Day Schedule Name
  ,                                       !- ASHRAE Clear Sky Optical Depth for Beam Irradiance (taub) {dimensionless}
  ,                                       !- ASHRAE Clear Sky Optical Depth for Diffuse Irradiance (taud) {dimensionless}
  0,                                      !- Sky Clearness
  ,                                       !- Maximum Number Warmup Days
  FullResetAtBeginEnvironment;            !- Begin Environment Reset Mode

! ################
! FLOOR N - INITIAL ZONE DEFINITION AND SIZING PARAMS 
! ################

 !- TOTAL_FLOORS_LIST created in 'idf_generator.py'

Zone,
  fl0_thz0,                       !- Name
  0,                                      !- Direction of Relative North {deg}
  0,                                      !- X Origin {m}
  0,                                      !- Y Origin {m}
  0,                                      !- Z Origin {m}
  ,                                       !- Type
  1,                                      !- Multiplier
  ,                                       !- Ceiling Height {m}
  ,                                       !- Volume {m3}
  ,                                       !- Floor Area {m2}
  ,                                       !- Zone Inside Convection Algorithm
  ,                                       !- Zone Outside Convection Algorithm
  Yes;                                    !- Part of Total Floor Area

Space,
  fl0_thz0 Space,                       !- Name
  fl0_thz0,                             !- Zone Name
  ,                                       !- Ceiling Height {m}
  ,                                       !- Volume {m3}
  ;                                       !- Floor Area {m2}

Sizing:Zone,
  fl0_thz0,                               !- Zone or ZoneList Name
  SupplyAirTemperature,                   !- Zone Cooling Design Supply Air Temperature Input Method
  14,                                     !- Zone Cooling Design Supply Air Temperature {C}
  11.11,                                  !- Zone Cooling Design Supply Air Temperature Difference {deltaC}
  SupplyAirTemperature,                   !- Zone Heating Design Supply Air Temperature Input Method
  40,                                     !- Zone Heating Design Supply Air Temperature {C}
  11.11,                                  !- Zone Heating Design Supply Air Temperature Difference {deltaC}
  0.0085,                                 !- Zone Cooling Design Supply Air Humidity Ratio {kgWater/kgDryAir}
  0.008,                                  !- Zone Heating Design Supply Air Humidity Ratio {kgWater/kgDryAir}
  fl0_thz0 DSOA Space List,               !- Design Specification Outdoor Air Object Name
  ,                                       !- Zone Heating Sizing Factor
  ,                                       !- Zone Cooling Sizing Factor
  DesignDay,                              !- Cooling Design Air Flow Method
  0,                                      !- Cooling Design Air Flow Rate {m3/s}
  0.000762,                               !- Cooling Minimum Air Flow per Zone Floor Area {m3/s-m2}
  0,                                      !- Cooling Minimum Air Flow {m3/s}
  0,                                      !- Cooling Minimum Air Flow Fraction
  DesignDay,                              !- Heating Design Air Flow Method
  0,                                      !- Heating Design Air Flow Rate {m3/s}
  0.002032,                               !- Heating Maximum Air Flow per Zone Floor Area {m3/s-m2}
  0.1415762,                              !- Heating Maximum Air Flow {m3/s}
  0.3,                                    !- Heating Maximum Air Flow Fraction
  ,                                       !- Design Specification Zone Air Distribution Object Name
  No,                                     !- Account for Dedicated Outdoor Air System
  ,                                       !- Dedicated Outdoor Air System Control Strategy
  ,                                       !- Dedicated Outdoor Air Low Setpoint Temperature for Design {C}
  ,                                       !- Dedicated Outdoor Air High Setpoint Temperature for Design {C}
  Sensible Load Only No Latent Load,      !- Zone Load Sizing Method
  HumidityRatioDifference,                !- Zone Latent Cooling Design Supply Air Humidity Ratio Input Method
  ,                                       !- Zone Dehumidification Design Supply Air Humidity Ratio {kgWater/kgDryAir}
  0.005,                                  !- Zone Cooling Design Supply Air Humidity Ratio Difference {kgWater/kgDryAir}
  HumidityRatioDifference,                !- Zone Latent Heating Design Supply Air Humidity Ratio Input Method
  ,                                       !- Zone Humidification Design Supply Air Humidity Ratio {kgWater/kgDryAir}
  0.005,                                  !- Zone Humidification Design Supply Air Humidity Ratio Difference {kgWater/kgDryAir}
  ,                                       !- Zone Humidistat Dehumidification Set Point Schedule Name
  ,                                       !- Zone Humidistat Humidification Set Point Schedule Name
  Coincident;                             !- Type of Space Sum to Use

! ! FRESH AIR REQUIREMENTS (NOT SURE IF THIS IS REQUIRED FOR SIZING IN OUR MODEL)
DesignSpecification:OutdoorAir:SpaceList,
  fl0_thz0 DSOA Space List,               !- Name
  fl0_thz0 Space,                         !- Space Name 1
  outdoorair_fl0_thz0;        !- Space Design Specification Outdoor Air Object Name 1

DesignSpecification:OutdoorAir, 
  outdoorair_fl0_thz0,        !- Name
  Sum,                                    !- Outdoor Air Method
  0,                                      !- Outdoor Air Flow per Person {m3/s-person}
  0.0003055556,                           !- Outdoor Air Flow per Zone Floor Area {m3/s-m2}
  0,                                      !- Outdoor Air Flow per Zone {m3/s}
  0;                                      !- Outdoor Air Flow Air Changes per Hour {1/hr}

! ######
! FLOOR N - CAPACITANCE MULTIPLIER (thermal inertia)
! ######

ZoneCapacitanceMultiplier:ResearchSpecial,
  Zone Capacitance Multiplier Research Special fl0_thz0, !- Name
  fl0_thz0,                                       !- Zone or ZoneList Name
  8,                                      !- Temperature Capacity Multiplier
  ,                                       !- Humidity Capacity Multiplier
  ,                                       !- Carbon Dioxide Capacity Multiplier
  ;                                       !- Generic Contaminant Capacity Multiplier

! ######
! FLOOR N - GEOMETRY
! ######

  !- FLOOR surface -
BuildingSurface:Detailed,
  fl0_thz0_GroundFloor,            !- Name
  Floor,                                  !- Surface Type
  Ground_construction_ground,                    !- Construction Name OJO!!!!!!!!!!!!!!!!!!!!!!!!!!!!!!!!!!!!!!!!
  fl0_thz0,                        !- Zone Name
  fl0_thz0 Space,                  !- Space Name
  Ground,                                 !- Outside Boundary Condition
  ,                                       !- Outside Boundary Condition Object
  NoSun,                                  !- Sun Exposure
  NoWind,                                 !- Wind Exposure
  1,                                      !- View Factor to Ground
  ,                                       !- Number of Vertices
  5.32, 5.32, 0.0,
  5.32, 0, 0.0,
  0, 0, 0.0,
  0, 5.32, 0.0;

  !- ROOF surface -
BuildingSurface:Detailed,
  fl0_thz0_Roof,                        !- Name
  Roof,                                   !- Surface Type
  Internal_ceiling,
  fl0_thz0,                             !- Zone Name
  fl0_thz0 Space,                       !- Space Name
  Surface, !- Outside Boundary Condition
  fl1_thz0_GroundFloor,                                       !- Outside Boundary Condition Object
  NoSun,                             !- Sun Exposure
  NoWind,                            !- Wind Exposure
  0,                                      !- View Factor to Ground
  ,                                       !- Number of Vertices
  5.046995145628734, 0, 2.6,
  5.046995145628734, 5.32, 2.6,
  0, 5.32, 2.6,
  0, 0, 2.6;
  

!- SOLAR COLLECTOR PANEL SURFACE AT THE TOP


  !- 4 WALLS -
 !- This order is to keep the façade (wall1) in the proper orientation
BuildingSurface:Detailed,
  fl0_thz0_Wall_3,  !- Name
  Wall,                    !- Surface Type
  Wall_construction, !- Construction Name
  fl0_thz0,                        !- Zone Name
  fl0_thz0 Space,                  !- Space Name
 
  Outdoors,                               !- Outside Boundary Condition
  ,                                       !- Outside Boundary Condition Object
  SunExposed,                             !- Sun Exposure
  WindExposed,                            !- Wind Exposure
    
  ,                                       !- View Factor to Ground
  ,                                       !- Number of Vertices
  0, 0, 2.6,
  0, 0, 0.0,
  5.32, 0, 0.0,
  5.32, 0, 2.6;


FenestrationSurface:Detailed,
  fl0_thz0_Wall_3_Win,    !- Name
  Window,                                 !- Surface Type
  Window_construction,                    !- Construction Name
  fl0_thz0_Wall_3,        !- Building Surface Name
  ,                               !- Outside Boundary Condition 
  ,                                       !- View Factor to Ground
  Frame_construction,                     !- Frame and Divider Name
  1,                                      !- Multiplier
  ,                                       !- Number of Vertices
  1.8100000000000003, 0, 1.9500000000000002,
  1.8100000000000003, 0, 0.65,
  3.5100000000000002, 0, 0.65,
  3.5100000000000002, 0, 1.9500000000000002;

 
  
  WindowShadingControl,
  shade_control_fl0_thz0_W3,            !- Name
  fl0_thz0,                             !- Zone Name
  4,                                      !- Shading Control Sequence Number
  ExteriorShade,                          !- Shading Type
  ,                                       !- Construction with Shading Name
  OnIfHighSolarOnWindow,                  !- Shading Control Type
  ,                                       !- Schedule Name
  90,                                     !- Setpoint {W/m2, W or deg C}
  No,                                     !- Shading Control Is Scheduled
  No,                                     !- Glare Control Is Active
  Shade0101,                              !- Shading Device Material Name
  FixedSlatAngle,                         !- Type of Slat Angle Control for Blinds
  ,                                       !- Slat Angle Schedule Name
  ,                                       !- Setpoint 2 {W/m2, deg C or cd/m2}
  ,                                       !- Daylighting Control Object Name
  Sequential,                             !- Multiple Surface Control Type
  fl0_thz0_Wall_3_Win;                  !- Fenestration Surface Name 1
  
BuildingSurface:Detailed,
  fl0_thz0_Wall_0,  !- Name
  Wall,                    !- Surface Type
  Wall_construction, !- Construction Name
  fl0_thz0,                        !- Zone Name
  fl0_thz0 Space,                  !- Space Name
 
  Outdoors,                               !- Outside Boundary Condition
  ,                                       !- Outside Boundary Condition Object
  SunExposed,                             !- Sun Exposure
  WindExposed,                            !- Wind Exposure
    
  ,                                       !- View Factor to Ground
  ,                                       !- Number of Vertices
  0, 5.32, 2.6,
  0, 5.32, 0.0,
  0, 0, 0.0,
  0, 0, 2.6;


FenestrationSurface:Detailed,
  fl0_thz0_Wall_0_Win,    !- Name
  Window,                                 !- Surface Type
  Window_construction,                    !- Construction Name
  fl0_thz0_Wall_0,        !- Building Surface Name
  ,                               !- Outside Boundary Condition 
  ,                                       !- View Factor to Ground
  Frame_construction,                     !- Frame and Divider Name
  1,                                      !- Multiplier
  ,                                       !- Number of Vertices
  0, 3.5100000000000002, 1.9500000000000002,
  0, 3.5100000000000002, 0.65,
  0, 1.8100000000000003, 0.65,
  0, 1.8100000000000003, 1.9500000000000002;
 
  
  WindowShadingControl,
  shade_control_fl0_thz0_W0,            !- Name
  fl0_thz0,                             !- Zone Name
  1,                                      !- Shading Control Sequence Number
  ExteriorShade,                          !- Shading Type
  ,                                       !- Construction with Shading Name
  OnIfHighSolarOnWindow,                  !- Shading Control Type
  ,                                       !- Schedule Name
  90,                                     !- Setpoint {W/m2, W or deg C}
  No,                                     !- Shading Control Is Scheduled
  No,                                     !- Glare Control Is Active
  Shade0101,                              !- Shading Device Material Name
  FixedSlatAngle,                         !- Type of Slat Angle Control for Blinds
  ,                                       !- Slat Angle Schedule Name
  ,                                       !- Setpoint 2 {W/m2, deg C or cd/m2}
  ,                                       !- Daylighting Control Object Name
  Sequential,                             !- Multiple Surface Control Type
  fl0_thz0_Wall_0_Win;                  !- Fenestration Surface Name 1
  
BuildingSurface:Detailed,
  fl0_thz0_Wall_2,  !- Name
  Wall,                    !- Surface Type
  Wall_construction, !- Construction Name
  fl0_thz0,                        !- Zone Name
  fl0_thz0 Space,                  !- Space Name
 
  Outdoors,                               !- Outside Boundary Condition
  ,                                       !- Outside Boundary Condition Object
  SunExposed,                             !- Sun Exposure
  WindExposed,                            !- Wind Exposure
    
  ,                                       !- View Factor to Ground
  ,                                       !- Number of Vertices
  5.32, 0, 2.6,
  5.32, 0, 0.0,
  5.32, 5.32, 0.0,
  5.32, 5.32, 2.6;


FenestrationSurface:Detailed,
  fl0_thz0_Wall_2_Win,    !- Name
  Window,                                 !- Surface Type
  Window_construction,                    !- Construction Name
  fl0_thz0_Wall_2,        !- Building Surface Name
  ,                               !- Outside Boundary Condition 
  ,                                       !- View Factor to Ground
  Frame_construction,                     !- Frame and Divider Name
  1,                                      !- Multiplier
  ,                                       !- Number of Vertices
   5.32, 1.81, 1.9500000000000002,
  5.32, 1.81, 0.65,
  5.32, 3.51, 0.65,
  5.32, 3.51, 1.9500000000000002;
 
  
  WindowShadingControl,
  shade_control_fl0_thz0_W2,            !- Name
  fl0_thz0,                             !- Zone Name
  3,                                      !- Shading Control Sequence Number
  ExteriorShade,                          !- Shading Type
  ,                                       !- Construction with Shading Name
  OnIfHighSolarOnWindow,                  !- Shading Control Type
  ,                                       !- Schedule Name
  90,                                     !- Setpoint {W/m2, W or deg C}
  No,                                     !- Shading Control Is Scheduled
  No,                                     !- Glare Control Is Active
  Shade0101,                              !- Shading Device Material Name
  FixedSlatAngle,                         !- Type of Slat Angle Control for Blinds
  ,                                       !- Slat Angle Schedule Name
  ,                                       !- Setpoint 2 {W/m2, deg C or cd/m2}
  ,                                       !- Daylighting Control Object Name
  Sequential,                             !- Multiple Surface Control Type
  fl0_thz0_Wall_2_Win;                  !- Fenestration Surface Name 1
  
BuildingSurface:Detailed,
  fl0_thz0_Wall_1,  !- Name
  Wall,                    !- Surface Type
  Wall_construction, !- Construction Name
  fl0_thz0,                        !- Zone Name
  fl0_thz0 Space,                  !- Space Name
 
  Outdoors,                               !- Outside Boundary Condition
  ,                                       !- Outside Boundary Condition Object
  SunExposed,                             !- Sun Exposure
  WindExposed,                            !- Wind Exposure
    
  ,                                       !- View Factor to Ground
  ,                                       !- Number of Vertices
  5.32, 5.32, 2.6,
  5.32, 5.32, 0.0,
  0, 5.32, 0.0,
  0, 5.32, 2.6;


FenestrationSurface:Detailed,
  fl0_thz0_Wall_1_Win,    !- Name
  Window,                                 !- Surface Type
  Window_construction,                    !- Construction Name
  fl0_thz0_Wall_1,        !- Building Surface Name
  ,                               !- Outside Boundary Condition 
  ,                                       !- View Factor to Ground
  Frame_construction,                     !- Frame and Divider Name
  1,                                      !- Multiplier
  ,                                       !- Number of Vertices
  3.51, 5.32, 1.9500000000000002,
  3.51, 5.32, 0.65,
  1.81, 5.32, 0.65,
  1.81, 5.32, 1.9500000000000002;
 
  
  WindowShadingControl,
  shade_control_fl0_thz0_W1,            !- Name
  fl0_thz0,                             !- Zone Name
  2,                                      !- Shading Control Sequence Number
  ExteriorShade,                          !- Shading Type
  ,                                       !- Construction with Shading Name
  OnIfHighSolarOnWindow,                  !- Shading Control Type
  ,                                       !- Schedule Name
  90,                                     !- Setpoint {W/m2, W or deg C}
  No,                                     !- Shading Control Is Scheduled
  No,                                     !- Glare Control Is Active
  Shade0101,                              !- Shading Device Material Name
  FixedSlatAngle,                         !- Type of Slat Angle Control for Blinds
  ,                                       !- Slat Angle Schedule Name
  ,                                       !- Setpoint 2 {W/m2, deg C or cd/m2}
  ,                                       !- Daylighting Control Object Name
  Sequential,                             !- Multiple Surface Control Type
  fl0_thz0_Wall_1_Win;                  !- Fenestration Surface Name 1
  
 !- END direction loop
 !- TOTAL_FLOORS_LIST created in 'idf_generator.py'

Zone,
  fl1_thz0,                       !- Name
  0,                                      !- Direction of Relative North {deg}
  0,                                      !- X Origin {m}
  0,                                      !- Y Origin {m}
  0,                                      !- Z Origin {m}
  ,                                       !- Type
  1,                                      !- Multiplier
  ,                                       !- Ceiling Height {m}
  ,                                       !- Volume {m3}
  ,                                       !- Floor Area {m2}
  ,                                       !- Zone Inside Convection Algorithm
  ,                                       !- Zone Outside Convection Algorithm
  Yes;                                    !- Part of Total Floor Area

Space,
  fl1_thz0 Space,                       !- Name
  fl1_thz0,                             !- Zone Name
  ,                                       !- Ceiling Height {m}
  ,                                       !- Volume {m3}
  ;                                       !- Floor Area {m2}

Sizing:Zone,
  fl1_thz0,                               !- Zone or ZoneList Name
  SupplyAirTemperature,                   !- Zone Cooling Design Supply Air Temperature Input Method
  14,                                     !- Zone Cooling Design Supply Air Temperature {C}
  11.11,                                  !- Zone Cooling Design Supply Air Temperature Difference {deltaC}
  SupplyAirTemperature,                   !- Zone Heating Design Supply Air Temperature Input Method
  40,                                     !- Zone Heating Design Supply Air Temperature {C}
  11.11,                                  !- Zone Heating Design Supply Air Temperature Difference {deltaC}
  0.0085,                                 !- Zone Cooling Design Supply Air Humidity Ratio {kgWater/kgDryAir}
  0.008,                                  !- Zone Heating Design Supply Air Humidity Ratio {kgWater/kgDryAir}
  fl1_thz0 DSOA Space List,               !- Design Specification Outdoor Air Object Name
  ,                                       !- Zone Heating Sizing Factor
  ,                                       !- Zone Cooling Sizing Factor
  DesignDay,                              !- Cooling Design Air Flow Method
  0,                                      !- Cooling Design Air Flow Rate {m3/s}
  0.000762,                               !- Cooling Minimum Air Flow per Zone Floor Area {m3/s-m2}
  0,                                      !- Cooling Minimum Air Flow {m3/s}
  0,                                      !- Cooling Minimum Air Flow Fraction
  DesignDay,                              !- Heating Design Air Flow Method
  0,                                      !- Heating Design Air Flow Rate {m3/s}
  0.002032,                               !- Heating Maximum Air Flow per Zone Floor Area {m3/s-m2}
  0.1415762,                              !- Heating Maximum Air Flow {m3/s}
  0.3,                                    !- Heating Maximum Air Flow Fraction
  ,                                       !- Design Specification Zone Air Distribution Object Name
  No,                                     !- Account for Dedicated Outdoor Air System
  ,                                       !- Dedicated Outdoor Air System Control Strategy
  ,                                       !- Dedicated Outdoor Air Low Setpoint Temperature for Design {C}
  ,                                       !- Dedicated Outdoor Air High Setpoint Temperature for Design {C}
  Sensible Load Only No Latent Load,      !- Zone Load Sizing Method
  HumidityRatioDifference,                !- Zone Latent Cooling Design Supply Air Humidity Ratio Input Method
  ,                                       !- Zone Dehumidification Design Supply Air Humidity Ratio {kgWater/kgDryAir}
  0.005,                                  !- Zone Cooling Design Supply Air Humidity Ratio Difference {kgWater/kgDryAir}
  HumidityRatioDifference,                !- Zone Latent Heating Design Supply Air Humidity Ratio Input Method
  ,                                       !- Zone Humidification Design Supply Air Humidity Ratio {kgWater/kgDryAir}
  0.005,                                  !- Zone Humidification Design Supply Air Humidity Ratio Difference {kgWater/kgDryAir}
  ,                                       !- Zone Humidistat Dehumidification Set Point Schedule Name
  ,                                       !- Zone Humidistat Humidification Set Point Schedule Name
  Coincident;                             !- Type of Space Sum to Use

! ! FRESH AIR REQUIREMENTS (NOT SURE IF THIS IS REQUIRED FOR SIZING IN OUR MODEL)
DesignSpecification:OutdoorAir:SpaceList,
  fl1_thz0 DSOA Space List,               !- Name
  fl1_thz0 Space,                         !- Space Name 1
  outdoorair_fl1_thz0;        !- Space Design Specification Outdoor Air Object Name 1

DesignSpecification:OutdoorAir, 
  outdoorair_fl1_thz0,        !- Name
  Sum,                                    !- Outdoor Air Method
  0,                                      !- Outdoor Air Flow per Person {m3/s-person}
  0.0003055556,                           !- Outdoor Air Flow per Zone Floor Area {m3/s-m2}
  0,                                      !- Outdoor Air Flow per Zone {m3/s}
  0;                                      !- Outdoor Air Flow Air Changes per Hour {1/hr}

! ######
! FLOOR N - CAPACITANCE MULTIPLIER (thermal inertia)
! ######

ZoneCapacitanceMultiplier:ResearchSpecial,
  Zone Capacitance Multiplier Research Special fl1_thz0, !- Name
  fl1_thz0,                                       !- Zone or ZoneList Name
  8,                                      !- Temperature Capacity Multiplier
  ,                                       !- Humidity Capacity Multiplier
  ,                                       !- Carbon Dioxide Capacity Multiplier
  ;                                       !- Generic Contaminant Capacity Multiplier

! ######
! FLOOR N - GEOMETRY
! ######

  !- FLOOR surface -
BuildingSurface:Detailed,
  fl1_thz0_GroundFloor,            !- Name
  Floor,                                  !- Surface Type
  Ground_construction,
  fl1_thz0,                        !- Zone Name
  fl1_thz0 Space,                  !- Space Name
  Surface, !- Outside Boundary Condition
  fl0_thz0_Roof,                                       !- Outside Boundary Condition Object
  NoSun,                                  !- Sun Exposure
  NoWind,                                 !- Wind Exposure
  1,                                      !- View Factor to Ground
  ,                                       !- Number of Vertices
 !- if floor != 0 -> add a hole (in single-family houses)
  5.046995145628734, 5.32, 2.6,
  5.046995145628734, 0, 2.6,
  0, 0, 2.6,
  0, 5.32, 2.6;

  !- ROOF surface -
BuildingSurface:Detailed,
  fl1_thz0_Roof,                        !- Name
  Roof,                                   !- Surface Type
  Internal_ceiling,
  fl1_thz0,                             !- Zone Name
  fl1_thz0 Space,                       !- Space Name
  Surface, !- Outside Boundary Condition
  fl2_thz0_GroundFloor,                                       !- Outside Boundary Condition Object
  NoSun,                             !- Sun Exposure
  NoWind,                            !- Wind Exposure
  0,                                      !- View Factor to Ground
  ,                                       !- Number of Vertices
  5.046995145628734, 0, 5.2,
  5.046995145628734, 5.32, 5.2,
  0, 5.32, 5.2,
  0, 0, 5.2;
  

!- SOLAR COLLECTOR PANEL SURFACE AT THE TOP


  !- 4 WALLS -
 !- This order is to keep the façade (wall1) in the proper orientation
BuildingSurface:Detailed,
  fl1_thz0_Wall_3,  !- Name
  Wall,                    !- Surface Type
  Wall_construction, !- Construction Name
  fl1_thz0,                        !- Zone Name
  fl1_thz0 Space,                  !- Space Name
 
  Outdoors,                               !- Outside Boundary Condition
  ,                                       !- Outside Boundary Condition Object
  SunExposed,                             !- Sun Exposure
  WindExposed,                            !- Wind Exposure
    
  ,                                       !- View Factor to Ground
  ,                                       !- Number of Vertices
  0, 0, 5.2,
  0, 0, 2.6,
  5.32, 0, 2.6,
  5.32, 0, 5.2;


FenestrationSurface:Detailed,
  fl1_thz0_Wall_3_Win,    !- Name
  Window,                                 !- Surface Type
  Window_construction,                    !- Construction Name
  fl1_thz0_Wall_3,        !- Building Surface Name
  ,                               !- Outside Boundary Condition 
  ,                                       !- View Factor to Ground
  Frame_construction,                     !- Frame and Divider Name
  1,                                      !- Multiplier
  ,                                       !- Number of Vertices
  1.8100000000000003, 0, 4.55,
  1.8100000000000003, 0, 3.25,
  3.5100000000000002, 0, 3.25,
  3.5100000000000002, 0, 4.55;

 
  
  WindowShadingControl,
  shade_control_fl1_thz0_W3,            !- Name
  fl1_thz0,                             !- Zone Name
  4,                                      !- Shading Control Sequence Number
  ExteriorShade,                          !- Shading Type
  ,                                       !- Construction with Shading Name
  OnIfHighSolarOnWindow,                  !- Shading Control Type
  ,                                       !- Schedule Name
  90,                                     !- Setpoint {W/m2, W or deg C}
  No,                                     !- Shading Control Is Scheduled
  No,                                     !- Glare Control Is Active
  Shade0101,                              !- Shading Device Material Name
  FixedSlatAngle,                         !- Type of Slat Angle Control for Blinds
  ,                                       !- Slat Angle Schedule Name
  ,                                       !- Setpoint 2 {W/m2, deg C or cd/m2}
  ,                                       !- Daylighting Control Object Name
  Sequential,                             !- Multiple Surface Control Type
  fl1_thz0_Wall_3_Win;                  !- Fenestration Surface Name 1
  
BuildingSurface:Detailed,
  fl1_thz0_Wall_0,  !- Name
  Wall,                    !- Surface Type
  Wall_construction, !- Construction Name
  fl1_thz0,                        !- Zone Name
  fl1_thz0 Space,                  !- Space Name
 
  Outdoors,                               !- Outside Boundary Condition
  ,                                       !- Outside Boundary Condition Object
  SunExposed,                             !- Sun Exposure
  WindExposed,                            !- Wind Exposure
    
  ,                                       !- View Factor to Ground
  ,                                       !- Number of Vertices
  0, 5.32, 5.2,
  0, 5.32, 2.6,
  0, 0, 2.6,
  0, 0, 5.2;


FenestrationSurface:Detailed,
  fl1_thz0_Wall_0_Win,    !- Name
  Window,                                 !- Surface Type
  Window_construction,                    !- Construction Name
  fl1_thz0_Wall_0,        !- Building Surface Name
  ,                               !- Outside Boundary Condition 
  ,                                       !- View Factor to Ground
  Frame_construction,                     !- Frame and Divider Name
  1,                                      !- Multiplier
  ,                                       !- Number of Vertices
  0, 3.5100000000000002, 4.55,
  0, 3.5100000000000002, 3.25,
  0, 1.8100000000000003, 3.25,
  0, 1.8100000000000003, 4.55;
 
  
  WindowShadingControl,
  shade_control_fl1_thz0_W0,            !- Name
  fl1_thz0,                             !- Zone Name
  1,                                      !- Shading Control Sequence Number
  ExteriorShade,                          !- Shading Type
  ,                                       !- Construction with Shading Name
  OnIfHighSolarOnWindow,                  !- Shading Control Type
  ,                                       !- Schedule Name
  90,                                     !- Setpoint {W/m2, W or deg C}
  No,                                     !- Shading Control Is Scheduled
  No,                                     !- Glare Control Is Active
  Shade0101,                              !- Shading Device Material Name
  FixedSlatAngle,                         !- Type of Slat Angle Control for Blinds
  ,                                       !- Slat Angle Schedule Name
  ,                                       !- Setpoint 2 {W/m2, deg C or cd/m2}
  ,                                       !- Daylighting Control Object Name
  Sequential,                             !- Multiple Surface Control Type
  fl1_thz0_Wall_0_Win;                  !- Fenestration Surface Name 1
  
BuildingSurface:Detailed,
  fl1_thz0_Wall_2,  !- Name
  Wall,                    !- Surface Type
  Wall_construction, !- Construction Name
  fl1_thz0,                        !- Zone Name
  fl1_thz0 Space,                  !- Space Name
 
  Outdoors,                               !- Outside Boundary Condition
  ,                                       !- Outside Boundary Condition Object
  SunExposed,                             !- Sun Exposure
  WindExposed,                            !- Wind Exposure
    
  ,                                       !- View Factor to Ground
  ,                                       !- Number of Vertices
  5.32, 0, 5.2,
  5.32, 0, 2.6,
  5.32, 5.32, 2.6,
  5.32, 5.32, 5.2;


FenestrationSurface:Detailed,
  fl1_thz0_Wall_2_Win,    !- Name
  Window,                                 !- Surface Type
  Window_construction,                    !- Construction Name
  fl1_thz0_Wall_2,        !- Building Surface Name
  ,                               !- Outside Boundary Condition 
  ,                                       !- View Factor to Ground
  Frame_construction,                     !- Frame and Divider Name
  1,                                      !- Multiplier
  ,                                       !- Number of Vertices
   5.32, 1.81, 4.55,
  5.32, 1.81, 3.25,
  5.32, 3.51, 3.25,
  5.32, 3.51, 4.55;
 
  
  WindowShadingControl,
  shade_control_fl1_thz0_W2,            !- Name
  fl1_thz0,                             !- Zone Name
  3,                                      !- Shading Control Sequence Number
  ExteriorShade,                          !- Shading Type
  ,                                       !- Construction with Shading Name
  OnIfHighSolarOnWindow,                  !- Shading Control Type
  ,                                       !- Schedule Name
  90,                                     !- Setpoint {W/m2, W or deg C}
  No,                                     !- Shading Control Is Scheduled
  No,                                     !- Glare Control Is Active
  Shade0101,                              !- Shading Device Material Name
  FixedSlatAngle,                         !- Type of Slat Angle Control for Blinds
  ,                                       !- Slat Angle Schedule Name
  ,                                       !- Setpoint 2 {W/m2, deg C or cd/m2}
  ,                                       !- Daylighting Control Object Name
  Sequential,                             !- Multiple Surface Control Type
  fl1_thz0_Wall_2_Win;                  !- Fenestration Surface Name 1
  
BuildingSurface:Detailed,
  fl1_thz0_Wall_1,  !- Name
  Wall,                    !- Surface Type
  Wall_construction, !- Construction Name
  fl1_thz0,                        !- Zone Name
  fl1_thz0 Space,                  !- Space Name
 
  Outdoors,                               !- Outside Boundary Condition
  ,                                       !- Outside Boundary Condition Object
  SunExposed,                             !- Sun Exposure
  WindExposed,                            !- Wind Exposure
    
  ,                                       !- View Factor to Ground
  ,                                       !- Number of Vertices
  5.32, 5.32, 5.2,
  5.32, 5.32, 2.6,
  0, 5.32, 2.6,
  0, 5.32, 5.2;


FenestrationSurface:Detailed,
  fl1_thz0_Wall_1_Win,    !- Name
  Window,                                 !- Surface Type
  Window_construction,                    !- Construction Name
  fl1_thz0_Wall_1,        !- Building Surface Name
  ,                               !- Outside Boundary Condition 
  ,                                       !- View Factor to Ground
  Frame_construction,                     !- Frame and Divider Name
  1,                                      !- Multiplier
  ,                                       !- Number of Vertices
  3.51, 5.32, 4.55,
  3.51, 5.32, 3.25,
  1.81, 5.32, 3.25,
  1.81, 5.32, 4.55;
 
  
  WindowShadingControl,
  shade_control_fl1_thz0_W1,            !- Name
  fl1_thz0,                             !- Zone Name
  2,                                      !- Shading Control Sequence Number
  ExteriorShade,                          !- Shading Type
  ,                                       !- Construction with Shading Name
  OnIfHighSolarOnWindow,                  !- Shading Control Type
  ,                                       !- Schedule Name
  90,                                     !- Setpoint {W/m2, W or deg C}
  No,                                     !- Shading Control Is Scheduled
  No,                                     !- Glare Control Is Active
  Shade0101,                              !- Shading Device Material Name
  FixedSlatAngle,                         !- Type of Slat Angle Control for Blinds
  ,                                       !- Slat Angle Schedule Name
  ,                                       !- Setpoint 2 {W/m2, deg C or cd/m2}
  ,                                       !- Daylighting Control Object Name
  Sequential,                             !- Multiple Surface Control Type
  fl1_thz0_Wall_1_Win;                  !- Fenestration Surface Name 1
  
 !- END direction loop
 !- TOTAL_FLOORS_LIST created in 'idf_generator.py'

Zone,
  fl2_thz0,                       !- Name
  0,                                      !- Direction of Relative North {deg}
  0,                                      !- X Origin {m}
  0,                                      !- Y Origin {m}
  0,                                      !- Z Origin {m}
  ,                                       !- Type
  1,                                      !- Multiplier
  ,                                       !- Ceiling Height {m}
  ,                                       !- Volume {m3}
  ,                                       !- Floor Area {m2}
  ,                                       !- Zone Inside Convection Algorithm
  ,                                       !- Zone Outside Convection Algorithm
  Yes;                                    !- Part of Total Floor Area

Space,
  fl2_thz0 Space,                       !- Name
  fl2_thz0,                             !- Zone Name
  ,                                       !- Ceiling Height {m}
  ,                                       !- Volume {m3}
  ;                                       !- Floor Area {m2}

Sizing:Zone,
  fl2_thz0,                               !- Zone or ZoneList Name
  SupplyAirTemperature,                   !- Zone Cooling Design Supply Air Temperature Input Method
  14,                                     !- Zone Cooling Design Supply Air Temperature {C}
  11.11,                                  !- Zone Cooling Design Supply Air Temperature Difference {deltaC}
  SupplyAirTemperature,                   !- Zone Heating Design Supply Air Temperature Input Method
  40,                                     !- Zone Heating Design Supply Air Temperature {C}
  11.11,                                  !- Zone Heating Design Supply Air Temperature Difference {deltaC}
  0.0085,                                 !- Zone Cooling Design Supply Air Humidity Ratio {kgWater/kgDryAir}
  0.008,                                  !- Zone Heating Design Supply Air Humidity Ratio {kgWater/kgDryAir}
  fl2_thz0 DSOA Space List,               !- Design Specification Outdoor Air Object Name
  ,                                       !- Zone Heating Sizing Factor
  ,                                       !- Zone Cooling Sizing Factor
  DesignDay,                              !- Cooling Design Air Flow Method
  0,                                      !- Cooling Design Air Flow Rate {m3/s}
  0.000762,                               !- Cooling Minimum Air Flow per Zone Floor Area {m3/s-m2}
  0,                                      !- Cooling Minimum Air Flow {m3/s}
  0,                                      !- Cooling Minimum Air Flow Fraction
  DesignDay,                              !- Heating Design Air Flow Method
  0,                                      !- Heating Design Air Flow Rate {m3/s}
  0.002032,                               !- Heating Maximum Air Flow per Zone Floor Area {m3/s-m2}
  0.1415762,                              !- Heating Maximum Air Flow {m3/s}
  0.3,                                    !- Heating Maximum Air Flow Fraction
  ,                                       !- Design Specification Zone Air Distribution Object Name
  No,                                     !- Account for Dedicated Outdoor Air System
  ,                                       !- Dedicated Outdoor Air System Control Strategy
  ,                                       !- Dedicated Outdoor Air Low Setpoint Temperature for Design {C}
  ,                                       !- Dedicated Outdoor Air High Setpoint Temperature for Design {C}
  Sensible Load Only No Latent Load,      !- Zone Load Sizing Method
  HumidityRatioDifference,                !- Zone Latent Cooling Design Supply Air Humidity Ratio Input Method
  ,                                       !- Zone Dehumidification Design Supply Air Humidity Ratio {kgWater/kgDryAir}
  0.005,                                  !- Zone Cooling Design Supply Air Humidity Ratio Difference {kgWater/kgDryAir}
  HumidityRatioDifference,                !- Zone Latent Heating Design Supply Air Humidity Ratio Input Method
  ,                                       !- Zone Humidification Design Supply Air Humidity Ratio {kgWater/kgDryAir}
  0.005,                                  !- Zone Humidification Design Supply Air Humidity Ratio Difference {kgWater/kgDryAir}
  ,                                       !- Zone Humidistat Dehumidification Set Point Schedule Name
  ,                                       !- Zone Humidistat Humidification Set Point Schedule Name
  Coincident;                             !- Type of Space Sum to Use

! ! FRESH AIR REQUIREMENTS (NOT SURE IF THIS IS REQUIRED FOR SIZING IN OUR MODEL)
DesignSpecification:OutdoorAir:SpaceList,
  fl2_thz0 DSOA Space List,               !- Name
  fl2_thz0 Space,                         !- Space Name 1
  outdoorair_fl2_thz0;        !- Space Design Specification Outdoor Air Object Name 1

DesignSpecification:OutdoorAir, 
  outdoorair_fl2_thz0,        !- Name
  Sum,                                    !- Outdoor Air Method
  0,                                      !- Outdoor Air Flow per Person {m3/s-person}
  0.0003055556,                           !- Outdoor Air Flow per Zone Floor Area {m3/s-m2}
  0,                                      !- Outdoor Air Flow per Zone {m3/s}
  0;                                      !- Outdoor Air Flow Air Changes per Hour {1/hr}

! ######
! FLOOR N - CAPACITANCE MULTIPLIER (thermal inertia)
! ######

ZoneCapacitanceMultiplier:ResearchSpecial,
  Zone Capacitance Multiplier Research Special fl2_thz0, !- Name
  fl2_thz0,                                       !- Zone or ZoneList Name
  8,                                      !- Temperature Capacity Multiplier
  ,                                       !- Humidity Capacity Multiplier
  ,                                       !- Carbon Dioxide Capacity Multiplier
  ;                                       !- Generic Contaminant Capacity Multiplier

! ######
! FLOOR N - GEOMETRY
! ######

  !- FLOOR surface -
BuildingSurface:Detailed,
  fl2_thz0_GroundFloor,            !- Name
  Floor,                                  !- Surface Type
  Ground_construction,
  fl2_thz0,                        !- Zone Name
  fl2_thz0 Space,                  !- Space Name
  Surface, !- Outside Boundary Condition
  fl1_thz0_Roof,                                       !- Outside Boundary Condition Object
  NoSun,                                  !- Sun Exposure
  NoWind,                                 !- Wind Exposure
  1,                                      !- View Factor to Ground
  ,                                       !- Number of Vertices
 !- if floor != 0 -> add a hole (in single-family houses)
  5.046995145628734, 5.32, 5.2,
  5.046995145628734, 0, 5.2,
  0, 0, 5.2,
  0, 5.32, 5.2;

  !- ROOF surface -
BuildingSurface:Detailed,
  fl2_thz0_Roof,                        !- Name
  Roof,                                   !- Surface Type
  Roof_construction,                      !- Construction Name ## THIS MUST MATCH THE CONSTRUCTION DATABASE
  fl2_thz0,                             !- Zone Name
  fl2_thz0 Space,                       !- Space Name
  Outdoors,                                 !- Outside Boundary Condition
  ,                                       !- Outside Boundary Condition Object
  SunExposed,                             !- Sun Exposure
  WindExposed,                            !- Wind Exposure
  0,                                      !- View Factor to Ground
  ,                                       !- Number of Vertices
  5.32, 0, 7.800000000000001,
  5.32, 5.32, 7.800000000000001,
  0, 5.32, 7.800000000000001,
  0, 0, 7.800000000000001;
  

!- SOLAR COLLECTOR PANEL SURFACE AT THE TOP
Shading:Site:Detailed,
  solar_panels_surface_0,                   !- Name
  ,                                       !- Transmittance Schedule Name
  ,                                       !- Number of Vertices
  0, 0, 7.800000000000001,              !- X,Y,Z Vertex 1 {m}
  2.2727272727272725, 0, 7.800000000000001,  !- X,Y,Z Vertex 2 {m}
  2.2727272727272725, 2.2, 8.9,  !- X,Y,Z Vertex 3 {m}
  0, 2.2, 8.9;  !- X,Y,Z Vertex 4 {m}


  !- 4 WALLS -
 !- This order is to keep the façade (wall1) in the proper orientation
BuildingSurface:Detailed,
  fl2_thz0_Wall_3,  !- Name
  Wall,                    !- Surface Type
  Wall_construction, !- Construction Name
  fl2_thz0,                        !- Zone Name
  fl2_thz0 Space,                  !- Space Name
 
  Outdoors,                               !- Outside Boundary Condition
  ,                                       !- Outside Boundary Condition Object
  SunExposed,                             !- Sun Exposure
  WindExposed,                            !- Wind Exposure
    
  ,                                       !- View Factor to Ground
  ,                                       !- Number of Vertices
  0, 0, 7.800000000000001,
  0, 0, 5.2,
  5.32, 0, 5.2,
  5.32, 0, 7.800000000000001;


FenestrationSurface:Detailed,
  fl2_thz0_Wall_3_Win,    !- Name
  Window,                                 !- Surface Type
  Window_construction,                    !- Construction Name
  fl2_thz0_Wall_3,        !- Building Surface Name
  ,                               !- Outside Boundary Condition 
  ,                                       !- View Factor to Ground
  Frame_construction,                     !- Frame and Divider Name
  1,                                      !- Multiplier
  ,                                       !- Number of Vertices
  1.8100000000000003, 0, 7.15,
  1.8100000000000003, 0, 5.8500000000000005,
  3.5100000000000002, 0, 5.8500000000000005,
  3.5100000000000002, 0, 7.15;

 
  
  WindowShadingControl,
  shade_control_fl2_thz0_W3,            !- Name
  fl2_thz0,                             !- Zone Name
  4,                                      !- Shading Control Sequence Number
  ExteriorShade,                          !- Shading Type
  ,                                       !- Construction with Shading Name
  OnIfHighSolarOnWindow,                  !- Shading Control Type
  ,                                       !- Schedule Name
  90,                                     !- Setpoint {W/m2, W or deg C}
  No,                                     !- Shading Control Is Scheduled
  No,                                     !- Glare Control Is Active
  Shade0101,                              !- Shading Device Material Name
  FixedSlatAngle,                         !- Type of Slat Angle Control for Blinds
  ,                                       !- Slat Angle Schedule Name
  ,                                       !- Setpoint 2 {W/m2, deg C or cd/m2}
  ,                                       !- Daylighting Control Object Name
  Sequential,                             !- Multiple Surface Control Type
  fl2_thz0_Wall_3_Win;                  !- Fenestration Surface Name 1
  
BuildingSurface:Detailed,
  fl2_thz0_Wall_0,  !- Name
  Wall,                    !- Surface Type
  Wall_construction, !- Construction Name
  fl2_thz0,                        !- Zone Name
  fl2_thz0 Space,                  !- Space Name
 
  Outdoors,                               !- Outside Boundary Condition
  ,                                       !- Outside Boundary Condition Object
  SunExposed,                             !- Sun Exposure
  WindExposed,                            !- Wind Exposure
    
  ,                                       !- View Factor to Ground
  ,                                       !- Number of Vertices
  0, 5.32, 7.800000000000001,
  0, 5.32, 5.2,
  0, 0, 5.2,
  0, 0, 7.800000000000001;


FenestrationSurface:Detailed,
  fl2_thz0_Wall_0_Win,    !- Name
  Window,                                 !- Surface Type
  Window_construction,                    !- Construction Name
  fl2_thz0_Wall_0,        !- Building Surface Name
  ,                               !- Outside Boundary Condition 
  ,                                       !- View Factor to Ground
  Frame_construction,                     !- Frame and Divider Name
  1,                                      !- Multiplier
  ,                                       !- Number of Vertices
  0, 3.5100000000000002, 7.15,
  0, 3.5100000000000002, 5.8500000000000005,
  0, 1.8100000000000003, 5.8500000000000005,
  0, 1.8100000000000003, 7.15;
 
  
  WindowShadingControl,
  shade_control_fl2_thz0_W0,            !- Name
  fl2_thz0,                             !- Zone Name
  1,                                      !- Shading Control Sequence Number
  ExteriorShade,                          !- Shading Type
  ,                                       !- Construction with Shading Name
  OnIfHighSolarOnWindow,                  !- Shading Control Type
  ,                                       !- Schedule Name
  90,                                     !- Setpoint {W/m2, W or deg C}
  No,                                     !- Shading Control Is Scheduled
  No,                                     !- Glare Control Is Active
  Shade0101,                              !- Shading Device Material Name
  FixedSlatAngle,                         !- Type of Slat Angle Control for Blinds
  ,                                       !- Slat Angle Schedule Name
  ,                                       !- Setpoint 2 {W/m2, deg C or cd/m2}
  ,                                       !- Daylighting Control Object Name
  Sequential,                             !- Multiple Surface Control Type
  fl2_thz0_Wall_0_Win;                  !- Fenestration Surface Name 1
  
BuildingSurface:Detailed,
  fl2_thz0_Wall_2,  !- Name
  Wall,                    !- Surface Type
  Wall_construction, !- Construction Name
  fl2_thz0,                        !- Zone Name
  fl2_thz0 Space,                  !- Space Name
 
  Outdoors,                               !- Outside Boundary Condition
  ,                                       !- Outside Boundary Condition Object
  SunExposed,                             !- Sun Exposure
  WindExposed,                            !- Wind Exposure
    
  ,                                       !- View Factor to Ground
  ,                                       !- Number of Vertices
  5.32, 0, 7.800000000000001,
  5.32, 0, 5.2,
  5.32, 5.32, 5.2,
  5.32, 5.32, 7.800000000000001;


FenestrationSurface:Detailed,
  fl2_thz0_Wall_2_Win,    !- Name
  Window,                                 !- Surface Type
  Window_construction,                    !- Construction Name
  fl2_thz0_Wall_2,        !- Building Surface Name
  ,                               !- Outside Boundary Condition 
  ,                                       !- View Factor to Ground
  Frame_construction,                     !- Frame and Divider Name
  1,                                      !- Multiplier
  ,                                       !- Number of Vertices
   5.32, 1.81, 7.15,
  5.32, 1.81, 5.8500000000000005,
  5.32, 3.51, 5.8500000000000005,
  5.32, 3.51, 7.15;
 
  
  WindowShadingControl,
  shade_control_fl2_thz0_W2,            !- Name
  fl2_thz0,                             !- Zone Name
  3,                                      !- Shading Control Sequence Number
  ExteriorShade,                          !- Shading Type
  ,                                       !- Construction with Shading Name
  OnIfHighSolarOnWindow,                  !- Shading Control Type
  ,                                       !- Schedule Name
  90,                                     !- Setpoint {W/m2, W or deg C}
  No,                                     !- Shading Control Is Scheduled
  No,                                     !- Glare Control Is Active
  Shade0101,                              !- Shading Device Material Name
  FixedSlatAngle,                         !- Type of Slat Angle Control for Blinds
  ,                                       !- Slat Angle Schedule Name
  ,                                       !- Setpoint 2 {W/m2, deg C or cd/m2}
  ,                                       !- Daylighting Control Object Name
  Sequential,                             !- Multiple Surface Control Type
  fl2_thz0_Wall_2_Win;                  !- Fenestration Surface Name 1
  
BuildingSurface:Detailed,
  fl2_thz0_Wall_1,  !- Name
  Wall,                    !- Surface Type
  Wall_construction, !- Construction Name
  fl2_thz0,                        !- Zone Name
  fl2_thz0 Space,                  !- Space Name
 
  Outdoors,                               !- Outside Boundary Condition
  ,                                       !- Outside Boundary Condition Object
  SunExposed,                             !- Sun Exposure
  WindExposed,                            !- Wind Exposure
    
  ,                                       !- View Factor to Ground
  ,                                       !- Number of Vertices
  5.32, 5.32, 7.800000000000001,
  5.32, 5.32, 5.2,
  0, 5.32, 5.2,
  0, 5.32, 7.800000000000001;


FenestrationSurface:Detailed,
  fl2_thz0_Wall_1_Win,    !- Name
  Window,                                 !- Surface Type
  Window_construction,                    !- Construction Name
  fl2_thz0_Wall_1,        !- Building Surface Name
  ,                               !- Outside Boundary Condition 
  ,                                       !- View Factor to Ground
  Frame_construction,                     !- Frame and Divider Name
  1,                                      !- Multiplier
  ,                                       !- Number of Vertices
  3.51, 5.32, 7.15,
  3.51, 5.32, 5.8500000000000005,
  1.81, 5.32, 5.8500000000000005,
  1.81, 5.32, 7.15;
 
  
  WindowShadingControl,
  shade_control_fl2_thz0_W1,            !- Name
  fl2_thz0,                             !- Zone Name
  2,                                      !- Shading Control Sequence Number
  ExteriorShade,                          !- Shading Type
  ,                                       !- Construction with Shading Name
  OnIfHighSolarOnWindow,                  !- Shading Control Type
  ,                                       !- Schedule Name
  90,                                     !- Setpoint {W/m2, W or deg C}
  No,                                     !- Shading Control Is Scheduled
  No,                                     !- Glare Control Is Active
  Shade0101,                              !- Shading Device Material Name
  FixedSlatAngle,                         !- Type of Slat Angle Control for Blinds
  ,                                       !- Slat Angle Schedule Name
  ,                                       !- Setpoint 2 {W/m2, deg C or cd/m2}
  ,                                       !- Daylighting Control Object Name
  Sequential,                             !- Multiple Surface Control Type
  fl2_thz0_Wall_1_Win;                  !- Fenestration Surface Name 1
  
 !- END direction loop
 !- END floor Loop

! ######
! FOR EACH FLOOR - LIGHTING DEMAND 
! ######

!- LIGHTS
 ! (e.g. if 4 fls total_floors_list=[0...3]) !- total_floors_list created in 'idf_generator.py'

Lights,
  fl0_thz0_Lights,                 !- Name
  fl0_thz0 Space,                  !- Zone or ZoneList or Space or SpaceList Name
  SFH_NOMINAL_lighting_fraction_schedule, !- Schedule Name
  Watts/Area,                             !- Design Level Calculation Method
  ,                                       !- Lighting Level {W}
  2.74,         !- Watts per Floor Area {W/m2}
  ,                                       !- Watts per Person {W/person}
  0,                                      !- Return Air Fraction
  0.4,                                    !- Fraction Radiant
  0.2,                                    !- Fraction Visible
  1,                                      !- Fraction Replaceable
  light_cons,                             !- End-Use Subcategory
  No,                                     !- Return Air Fraction Calculated from Plenum Temperature
  0,                                      !- Return Air Fraction Function of Plenum Temperature Coefficient 1
  0;                                      !- Return Air Fraction Function of Plenum Temperature Coefficient 2 {1/K}
 ! (e.g. if 4 fls total_floors_list=[0...3]) !- total_floors_list created in 'idf_generator.py'

Lights,
  fl1_thz0_Lights,                 !- Name
  fl1_thz0 Space,                  !- Zone or ZoneList or Space or SpaceList Name
  SFH_NOMINAL_lighting_fraction_schedule, !- Schedule Name
  Watts/Area,                             !- Design Level Calculation Method
  ,                                       !- Lighting Level {W}
  2.74,         !- Watts per Floor Area {W/m2}
  ,                                       !- Watts per Person {W/person}
  0,                                      !- Return Air Fraction
  0.4,                                    !- Fraction Radiant
  0.2,                                    !- Fraction Visible
  1,                                      !- Fraction Replaceable
  light_cons,                             !- End-Use Subcategory
  No,                                     !- Return Air Fraction Calculated from Plenum Temperature
  0,                                      !- Return Air Fraction Function of Plenum Temperature Coefficient 1
  0;                                      !- Return Air Fraction Function of Plenum Temperature Coefficient 2 {1/K}
 ! (e.g. if 4 fls total_floors_list=[0...3]) !- total_floors_list created in 'idf_generator.py'

Lights,
  fl2_thz0_Lights,                 !- Name
  fl2_thz0 Space,                  !- Zone or ZoneList or Space or SpaceList Name
  SFH_NOMINAL_lighting_fraction_schedule, !- Schedule Name
  Watts/Area,                             !- Design Level Calculation Method
  ,                                       !- Lighting Level {W}
  2.74,         !- Watts per Floor Area {W/m2}
  ,                                       !- Watts per Person {W/person}
  0,                                      !- Return Air Fraction
  0.4,                                    !- Fraction Radiant
  0.2,                                    !- Fraction Visible
  1,                                      !- Fraction Replaceable
  light_cons,                             !- End-Use Subcategory
  No,                                     !- Return Air Fraction Calculated from Plenum Temperature
  0,                                      !- Return Air Fraction Function of Plenum Temperature Coefficient 1
  0;                                      !- Return Air Fraction Function of Plenum Temperature Coefficient 2 {1/K}
 !- END floor Loop

SCHEDULE:FILE,
  SFH_NOMINAL_lighting_fraction_schedule,    !- Name
  FRACTION,                 !- Schedule Type Limits Name
  .\templates\profiles\SIA2024_SFH_nominal.csv,    !- File Name
  5,                        !- Column Number
  1,                       !- Rows to Skip at Top
  8760,                     !- Number of Hours of Data
  Semicolon,                !- Column Separator
  Yes;                       !- Interpolate to Timestep

!- END LIGHTS

! ######
! FOR EACH FLOOR - PEOPLE ACTIVITY
! ######

!- PEOPLE
 ! (e.g. if 4 fls total_floors_list=[0...3])!- floorsToSimulateList created in 'idf_generator.py'

People,
  fl0_thz0_People,                      !- Name
  fl0_thz0 Space,                       !- Zone or ZoneList or Space or SpaceList Name
  SFH_NOMINAL_occupancy_fraction_schedule,               !- Number of People Schedule Name
  People,                            !- Number of People Calculation Method
  1.0,                                       !- Number of People
  ,                                       !- People per Floor Area {person/m2}
  ,                                     !- Floor Area per Person {m2/person}
  0.3,                                    !- Fraction Radiant
  autocalculate,                                       !- Sensible Heat Fraction
  SFH_NOMINAL_activity_schedule,             !- Activity Level Schedule Name
  3.82e-08,                               !- Carbon Dioxide Generation Rate {m3/s-W}
  No;                                     !- Enable ASHRAE 55 Comfort Warnings

 ! (e.g. if 4 fls total_floors_list=[0...3])!- floorsToSimulateList created in 'idf_generator.py'

People,
  fl1_thz0_People,                      !- Name
  fl1_thz0 Space,                       !- Zone or ZoneList or Space or SpaceList Name
  SFH_NOMINAL_occupancy_fraction_schedule,               !- Number of People Schedule Name
  People,                            !- Number of People Calculation Method
  1.0,                                       !- Number of People
  ,                                       !- People per Floor Area {person/m2}
  ,                                     !- Floor Area per Person {m2/person}
  0.3,                                    !- Fraction Radiant
  autocalculate,                                       !- Sensible Heat Fraction
  SFH_NOMINAL_activity_schedule,             !- Activity Level Schedule Name
  3.82e-08,                               !- Carbon Dioxide Generation Rate {m3/s-W}
  No;                                     !- Enable ASHRAE 55 Comfort Warnings

 ! (e.g. if 4 fls total_floors_list=[0...3])!- floorsToSimulateList created in 'idf_generator.py'

People,
  fl2_thz0_People,                      !- Name
  fl2_thz0 Space,                       !- Zone or ZoneList or Space or SpaceList Name
  SFH_NOMINAL_occupancy_fraction_schedule,               !- Number of People Schedule Name
  People,                            !- Number of People Calculation Method
  1.0,                                       !- Number of People
  ,                                       !- People per Floor Area {person/m2}
  ,                                     !- Floor Area per Person {m2/person}
  0.3,                                    !- Fraction Radiant
  autocalculate,                                       !- Sensible Heat Fraction
  SFH_NOMINAL_activity_schedule,             !- Activity Level Schedule Name
  3.82e-08,                               !- Carbon Dioxide Generation Rate {m3/s-W}
  No;                                     !- Enable ASHRAE 55 Comfort Warnings

 !- END floor Loop


Schedule:File,
  SFH_NOMINAL_occupancy_fraction_schedule,    !- Name
  FRACTION,                 !- Schedule Type Limits Name
  .\templates\profiles\SIA2024_SFH_nominal.csv,    !- File Name
  2,                        !- Column Number
  1,                       !- Rows to Skip at Top
  8760,                     !- Number of Hours of Data
  Semicolon,                !- Column Separator
  Yes;                       !- Interpolate to Timestep



SCHEDULE:FILE,
  SFH_NOMINAL_activity_schedule,    !- Name
  ANY,                      !- Schedule Type Limits Name
  .\templates\profiles\SIA2024_SFH_nominal.csv,    !- File Name
  3,                        !- Column Number
  1,                       !- Rows to Skip at Top
  8760,                     !- Number of Hours of Data
  Semicolon,                !- Column Separator
  Yes;                       !- Interpolate to Timestep


!-END people

! ######
! FOR EACH FLOOR - APPLIANCES CONSUMPTION
! ######

!- ELECTRIC EQUIPMENT
 ! (e.g. if 4 fls total_floors_list=[0...3])!- floorsToSimulateList created in 'idf_generator.py'

ElectricEquipment,
  fl0_thz0_Appliances,             !- Name
  fl0_thz0 Space,                  !- Zone or ZoneList or Space or SpaceList Name
  SFH_NOMINAL_electric_appliances_fraction_schedule,          !- Schedule Name
  Watts/Area,                             !- Design Level Calculation Method
  ,                                       !- Design Level {W}
  8,    !- Watts per Floor Area {W/m2} (def. 8)
  ,                                       !- Watts per Person {W/person}
  0,                                      !- Fraction Latent
  0,                                      !- Fraction Radiant
  1,                                      !- Fraction Lost
  appliances;                             !- End-Use Subcategory
 ! (e.g. if 4 fls total_floors_list=[0...3])!- floorsToSimulateList created in 'idf_generator.py'

ElectricEquipment,
  fl1_thz0_Appliances,             !- Name
  fl1_thz0 Space,                  !- Zone or ZoneList or Space or SpaceList Name
  SFH_NOMINAL_electric_appliances_fraction_schedule,          !- Schedule Name
  Watts/Area,                             !- Design Level Calculation Method
  ,                                       !- Design Level {W}
  8,    !- Watts per Floor Area {W/m2} (def. 8)
  ,                                       !- Watts per Person {W/person}
  0,                                      !- Fraction Latent
  0,                                      !- Fraction Radiant
  1,                                      !- Fraction Lost
  appliances;                             !- End-Use Subcategory
 ! (e.g. if 4 fls total_floors_list=[0...3])!- floorsToSimulateList created in 'idf_generator.py'

ElectricEquipment,
  fl2_thz0_Appliances,             !- Name
  fl2_thz0 Space,                  !- Zone or ZoneList or Space or SpaceList Name
  SFH_NOMINAL_electric_appliances_fraction_schedule,          !- Schedule Name
  Watts/Area,                             !- Design Level Calculation Method
  ,                                       !- Design Level {W}
  8,    !- Watts per Floor Area {W/m2} (def. 8)
  ,                                       !- Watts per Person {W/person}
  0,                                      !- Fraction Latent
  0,                                      !- Fraction Radiant
  1,                                      !- Fraction Lost
  appliances;                             !- End-Use Subcategory
 !- END floor Loop

SCHEDULE:FILE,
    SFH_NOMINAL_electric_appliances_fraction_schedule,    !- Name
    FRACTION,                 !- Schedule Type Limits Name
    .\templates\profiles\SIA2024_SFH_nominal.csv,    !- File Name
    4,                        !- Column Number
    1,                       !- Rows to Skip at Top
    8760,                     !- Number of Hours of Data
    Semicolon,                !- Column Separator
    Yes;                       !- Interpolate to Timestep

! END appliances

! ######
! FOR EACH FLOOR - INFILTRATION PARAMS
! ######

!- INFILTRATION

 ! (e.g. if 4 fls total_floors_list=[0...3])

ZoneInfiltration:DesignFlowRate,
  infiltration_fl0_thz0,                  !- Name
  fl0_thz0 Space,                         !- Zone or ZoneList or Space or SpaceList Name
  schedule_infiltration_fl0_thz0,                                       !- Schedule Name
  AirChanges/Hour,                        !- Design Flow Rate Calculation Method
  ,                                       !- Design Flow Rate {m3/s}
  ,                                       !- Flow Rate per Floor Area {m3/s-m2}
  ,                                       !- Flow Rate per Exterior Surface Area {m3/s-m2}
  0.16,                                    !- Air Changes per Hour {1/hr}
  ,                                       !- Constant Term Coefficient
  ,                                       !- Temperature Term Coefficient
  ,                                       !- Velocity Term Coefficient
  ;                                       !- Velocity Squared Term Coefficient

Schedule:Constant,
  schedule_infiltration_fl0_thz0,         !- Name
  FRACTIONAL,                               !- Schedule Type Limits Name
  1;                                      !- Hourly Value

 ! (e.g. if 4 fls total_floors_list=[0...3])

ZoneInfiltration:DesignFlowRate,
  infiltration_fl1_thz0,                  !- Name
  fl1_thz0 Space,                         !- Zone or ZoneList or Space or SpaceList Name
  schedule_infiltration_fl1_thz0,                                       !- Schedule Name
  AirChanges/Hour,                        !- Design Flow Rate Calculation Method
  ,                                       !- Design Flow Rate {m3/s}
  ,                                       !- Flow Rate per Floor Area {m3/s-m2}
  ,                                       !- Flow Rate per Exterior Surface Area {m3/s-m2}
  0.16,                                    !- Air Changes per Hour {1/hr}
  ,                                       !- Constant Term Coefficient
  ,                                       !- Temperature Term Coefficient
  ,                                       !- Velocity Term Coefficient
  ;                                       !- Velocity Squared Term Coefficient

Schedule:Constant,
  schedule_infiltration_fl1_thz0,         !- Name
  FRACTIONAL,                               !- Schedule Type Limits Name
  1;                                      !- Hourly Value

 ! (e.g. if 4 fls total_floors_list=[0...3])

ZoneInfiltration:DesignFlowRate,
  infiltration_fl2_thz0,                  !- Name
  fl2_thz0 Space,                         !- Zone or ZoneList or Space or SpaceList Name
  schedule_infiltration_fl2_thz0,                                       !- Schedule Name
  AirChanges/Hour,                        !- Design Flow Rate Calculation Method
  ,                                       !- Design Flow Rate {m3/s}
  ,                                       !- Flow Rate per Floor Area {m3/s-m2}
  ,                                       !- Flow Rate per Exterior Surface Area {m3/s-m2}
  0.16,                                    !- Air Changes per Hour {1/hr}
  ,                                       !- Constant Term Coefficient
  ,                                       !- Temperature Term Coefficient
  ,                                       !- Velocity Term Coefficient
  ;                                       !- Velocity Squared Term Coefficient

Schedule:Constant,
  schedule_infiltration_fl2_thz0,         !- Name
  FRACTIONAL,                               !- Schedule Type Limits Name
  1;                                      !- Hourly Value


!- END infiltration


! ######
! FOR EACH FLOOR - FORCED VENTILATION PARAMS
! ######

!- VENTILATION

 ! (e.g. if 4 fls total_floors_list=[0...3])

ZoneVentilation:WindandStackOpenArea,
  forcedVentilation_fl0_thz0,             !- Name
  fl0_thz0,                               !- Zone or Space Name
  4,                                      !- Opening Area {m2}
  schedule_forcedVentilation_fl0_thz0,    !- Opening Area Fraction Schedule Name
  Autocalculate,                          !- Opening Effectiveness {dimensionless}
  0,                                      !- Effective Angle {deg}
  0,                                      !- Height Difference {m}
  Autocalculate,                          !- Discharge Coefficient for Opening
  25,                                     !- Minimum Indoor Temperature {C}
  ,                                       !- Minimum Indoor Temperature Schedule Name
  100,                                    !- Maximum Indoor Temperature {C}
  ,                                       !- Maximum Indoor Temperature Schedule Name
  1,                                      !- Delta Temperature {deltaC}
  ,                                       !- Delta Temperature Schedule Name
  10,                                     !- Minimum Outdoor Temperature {C}
  ,                                       !- Minimum Outdoor Temperature Schedule Name
  25,                                     !- Maximum Outdoor Temperature {C}
  ,                                       !- Maximum Outdoor Temperature Schedule Name
  40;                                     !- Maximum Wind Speed {m/s}


Schedule:Compact,
  schedule_forcedVentilation_fl0_thz0,    !- Name
  FRACTIONAL,                               !- Schedule Type Limits Name
  Through: 12/31,                         !- Field 1
  For: AllDays,                           !- Field 2
  until: 8:00,                            !- Field 3
  1,                                      !- Field 4
  Until: 23:00,                           !- Field 5
  0,                                      !- Field 6
  Until: 24:00,                           !- Field 7
  1;                                      !- Field 8


 ! (e.g. if 4 fls total_floors_list=[0...3])

ZoneVentilation:WindandStackOpenArea,
  forcedVentilation_fl1_thz0,             !- Name
  fl1_thz0,                               !- Zone or Space Name
  4,                                      !- Opening Area {m2}
  schedule_forcedVentilation_fl1_thz0,    !- Opening Area Fraction Schedule Name
  Autocalculate,                          !- Opening Effectiveness {dimensionless}
  0,                                      !- Effective Angle {deg}
  0,                                      !- Height Difference {m}
  Autocalculate,                          !- Discharge Coefficient for Opening
  25,                                     !- Minimum Indoor Temperature {C}
  ,                                       !- Minimum Indoor Temperature Schedule Name
  100,                                    !- Maximum Indoor Temperature {C}
  ,                                       !- Maximum Indoor Temperature Schedule Name
  1,                                      !- Delta Temperature {deltaC}
  ,                                       !- Delta Temperature Schedule Name
  10,                                     !- Minimum Outdoor Temperature {C}
  ,                                       !- Minimum Outdoor Temperature Schedule Name
  25,                                     !- Maximum Outdoor Temperature {C}
  ,                                       !- Maximum Outdoor Temperature Schedule Name
  40;                                     !- Maximum Wind Speed {m/s}


Schedule:Compact,
  schedule_forcedVentilation_fl1_thz0,    !- Name
  FRACTIONAL,                               !- Schedule Type Limits Name
  Through: 12/31,                         !- Field 1
  For: AllDays,                           !- Field 2
  until: 8:00,                            !- Field 3
  1,                                      !- Field 4
  Until: 23:00,                           !- Field 5
  0,                                      !- Field 6
  Until: 24:00,                           !- Field 7
  1;                                      !- Field 8


 ! (e.g. if 4 fls total_floors_list=[0...3])

ZoneVentilation:WindandStackOpenArea,
  forcedVentilation_fl2_thz0,             !- Name
  fl2_thz0,                               !- Zone or Space Name
  4,                                      !- Opening Area {m2}
  schedule_forcedVentilation_fl2_thz0,    !- Opening Area Fraction Schedule Name
  Autocalculate,                          !- Opening Effectiveness {dimensionless}
  0,                                      !- Effective Angle {deg}
  0,                                      !- Height Difference {m}
  Autocalculate,                          !- Discharge Coefficient for Opening
  25,                                     !- Minimum Indoor Temperature {C}
  ,                                       !- Minimum Indoor Temperature Schedule Name
  100,                                    !- Maximum Indoor Temperature {C}
  ,                                       !- Maximum Indoor Temperature Schedule Name
  1,                                      !- Delta Temperature {deltaC}
  ,                                       !- Delta Temperature Schedule Name
  10,                                     !- Minimum Outdoor Temperature {C}
  ,                                       !- Minimum Outdoor Temperature Schedule Name
  25,                                     !- Maximum Outdoor Temperature {C}
  ,                                       !- Maximum Outdoor Temperature Schedule Name
  40;                                     !- Maximum Wind Speed {m/s}


Schedule:Compact,
  schedule_forcedVentilation_fl2_thz0,    !- Name
  FRACTIONAL,                               !- Schedule Type Limits Name
  Through: 12/31,                         !- Field 1
  For: AllDays,                           !- Field 2
  until: 8:00,                            !- Field 3
  1,                                      !- Field 4
  Until: 23:00,                           !- Field 5
  0,                                      !- Field 6
  Until: 24:00,                           !- Field 7
  1;                                      !- Field 8


 !- END floor Loop



!- END VENTILATION


! ################
! COMMON INSTANCES - SCHEDULE LIMITS (ENERGYPLUS REQUIREMENT)
! ################

! ################
! COMMON INSTANCES - SCHEDULE TYPE LIMITS
! ################

ScheduleTypeLimits,
  Temperature,                            !- Name
  ,                                       !- Lower Limit Value {BasedOnField A3}
  ,                                       !- Upper Limit Value {BasedOnField A3}
  Continuous,                             !- Numeric Type
  temperature;                            !- Unit Type

ScheduleTypeLimits,
  Fractional,                               !- Name
  0,                                      !- Lower Limit Value {BasedOnField A3}
  1,                                      !- Upper Limit Value {BasedOnField A3}
  Continuous;                             !- Numeric Type

ScheduleTypeLimits,
  schedule_limits_thermostatControl, !- Name
  0,                                      !- Lower Limit Value {BasedOnField A3}
  4,                                      !- Upper Limit Value {BasedOnField A3}
  DISCRETE;                               !- Numeric Type

ScheduleTypeLimits,
  ActivityLevel,                          !- Name
  0,                                      !- Lower Limit Value {BasedOnField A3}
  ,                                       !- Upper Limit Value {BasedOnField A3}
  Continuous,                             !- Numeric Type
  activitylevel;                          !- Unit Type

ScheduleTypeLimits,
  Dimensionless,                          !- Name
  ,                                       !- Lower Limit Value {BasedOnField A3}
  ,                                       !- Upper Limit Value {BasedOnField A3}
  Continuous;                             !- Numeric Type


! ################
! HVAC - ENERGY MANAGEMENT SYSTEM (HP/BOILER CONTROL AT 2 DIFFERENT TEMPERATURES)
! ################


! no need of EMS as working with 1 water temperature is ok.


! ################
! HVAC - HP EFFICIENCY CURVES (COP AND HEATING CAPACITY)
! ################



! ######
! HVAC - HP CURVES
! ######


! ======================
! MODEL: AEROTOP G07-14M
! ======================

Curve:Biquadratic,
  HPWH EIR Func of Temp,        !- Name
  0.002127962797405887,            !- C1
  0.04551616724652642,                     !- C2 *X
  0.00012666718102110353,                     !- C3 *X^2
  -0.026550994253348035,           !- C4 *Y
  0.0013872188501457088,            !- C5 *Y^2
  -0.0011060410973828647,                     !- C6 *X*Y
  35,                      !- Minimum Value of x (Load-side outlet)
  55,                      !- Maximum Value of x (Load-side outlet)
  -10,                     !- Minimum Value of y (Source-side inlet)
  20,                      !- Maximum Value of y (Source-side inlet)
  1.0,                     !- Minimum Curve Output (normalized)
  3.9012398151,            !- Maximum Curve Output (normalized)
  Temperature,             !- Input Unit Type for X
  Temperature,             !- Input Unit Type for Y
  Dimensionless;           !- Output Unit Type

Curve:Biquadratic,
  HPWH Heating Cap Func Temp,        !- Name
  0.0015218659535927532,            !- C1
  0.03254671514433575,                     !- C2 *X
  -0.0003875976758410249,                     !- C3 *X^2
  0.009908336611295615,            !- C4 *Y
  0.0008053348336897272,            !- C5 *Y^2
  -0.0002659291554312742,                     !- C6 *X*Y
  35,                      !- Minimum Value of x (Load-side outlet)
  55,                      !- Maximum Value of x (Load-side outlet)
  -10,                     !- Minimum Value of y (Source-side inlet)
  20,                      !- Maximum Value of y (Source-side inlet)
  0.6122029422,            !- Minimum Curve Output (normalized)
  1.0000052825,                     !- Maximum Curve Output (normalized)
  Temperature,             !- Input Unit Type for X
  Temperature,             !- Input Unit Type for Y
  Dimensionless;           !- Output Unit Type

!Curve:Quadratic,
!  Part Load Frac Correlation,     !- Name
!  1,                 !- Coefficient1 C1 (1+alpha)
!  0,                !- Coefficient2 C2 (-2*alpha)
!  0,                 !- Coefficient3 C3 (alpha)
!  0.0,                  !- Minimum Value of x (PLR)
!  1.0,                  !- Maximum Value of x (PLR)
!  1.0,                  !- Minimum Curve Output
!  1.0,                  !- Maximum Curve Output
!  Dimensionless,        !- Input Unit Type for X
!  Dimensionless;        !- Output Unit Type


Curve:Quadratic,
  Part Load Frac Correlation,   !- Name ! https://chatgpt.com/share/6901d55e-31e8-8003-bec6-9151f8c1644f
  0.85,                       !- Coefficient1 C1  
  0.15,                       !- Coefficient2 C2
  0.00,                       !- Coefficient3 C3
  0.0,                        !- Minimum Value of x (PLR)
  1.0,                        !- Maximum Value of x (PLR)
  0.0,                        !- Minimum Curve Output
  1.0,                        !- Maximum Curve Output
  Dimensionless,              !- Input Unit Type for X
  Dimensionless;              !- Output Unit Type



!-END CURVES

! ################
! HVAC - BOILER EFFICIENCY CURVES
! ################

! ######
! HVAC - BOILER CURVES (DEFAULT)
! ######

Curve:Biquadratic,
  Boiler Efficiency,                      !- Name
  1,                                      !- Coefficient1 Constant
  0,                                      !- Coefficient2 x
  0,                                      !- Coefficient3 x**2
  0,                                      !- Coefficient4 y
  0,                                      !- Coefficient5 y**2
  0,                                      !- Coefficient6 x*y
  0,                                      !- Minimum Value of x {BasedOnField A2}
  1,                                      !- Maximum Value of x {BasedOnField A2}
  0,                                      !- Minimum Value of y {BasedOnField A3}
  1;                                      !- Maximum Value of y {BasedOnField A3}

!-END CURVES

! ################
! HVAC - THERMOSTAT CONTROL
! ################

! ######
! FLOOR N - THERMOSTAT CONTROL
! ######

 ! (e.g. if 4 fls TOTAL_FLOORS_LIST=[0...3])



ZoneControl:Thermostat:OperativeTemperature,
  fl0_thz0 Thermostat,          !- ZoneControl:Thermostat Name
  Constant,                   !- Radiative Fraction Input Mode
  0.5,                        !- Fixed Radiative Fraction
  ,                           !- Radiative Fraction Schedule
  AdaptiveASH55CentralLine;   !- Adaptive Comfort Model Type !!!! adaptive comfort models only apply to cooling mode 


ZoneControl:Thermostat,
  fl0_thz0 Thermostat,                    !- Name
  fl0_thz0,                               !- Zone or ZoneList Name
  schedule_thermostatControl_fl0_thz0,           !- Control Type Schedule Name
  ThermostatSetpoint:DualSetpoint,        !- Control 1 Object Type
  thermostatControl_fl0_thz0,      !- Control 1 Name
  ,                                       !- Control 2 Object Type
  ,                                       !- Control 2 Name
  ,                                       !- Control 3 Object Type
  ,                                       !- Control 3 Name
  ,                                       !- Control 4 Object Type
  ,                                       !- Control 4 Name
  0;                                      !- Temperature Difference Between Cutout And Setpoint {deltaC}

Schedule:Compact,
  schedule_thermostatControl_fl0_thz0,           !- Name
  schedule_limits_thermostatControl, !- Schedule Type Limits Name
  Through: 12/31,                         !- Field 1
  For: AllDays,                           !- Field 2
  Until: 24:00,                           !- Field 3
  4;                                      !- Field 4

ThermostatSetpoint:DualSetpoint,
  thermostatControl_fl0_thz0,      !- Name
  schedule_heatingsetpoint_fl0_thz0,      !- Heating Setpoint Temperature Schedule Name
  schedule_coolingsetpoint_fl0_thz0;      !- Cooling Setpoint Temperature Schedule Name

!Schedule:Compact,
!  schedule_heatingsetpoint_fl0_thz0,      !- Name
!  Temperature,                            !- Schedule Type Limits Name
!  Through: 12/31,                       
!  For: AllDays,                         
!  until: 9:00,                          
!  24,                                    
!  Until: 17:00,                           
!  21,                                   
!  Until: 19:00,
!  21                          
!  Until: 24:00,                        
!  21;                               

Schedule:Compact,
  schedule_heatingsetpoint_fl0_thz0,              !- Name
  Temperature,                          !- Schedule Type Limits Name
  Through: 12/31,                       
  For: AllDays, 
  Until: 12:00,                             !- Time preheating N {hh:mm}
  24.0,          !- Value Until Time N T preheating
  Until: 12:15,                             !- Time preheating N {hh:mm}
  24.05,          !- Value Until Time N T preheating
  Until: 12:30,                             !- Time preheating N {hh:mm}
  24.11,          !- Value Until Time N T preheating
  Until: 12:45,                             !- Time preheating N {hh:mm}
  24.16,          !- Value Until Time N T preheating
  Until: 13:00,                             !- Time preheating N {hh:mm}
  24.21,          !- Value Until Time N T preheating
  Until: 13:15,                             !- Time preheating N {hh:mm}
  24.26,          !- Value Until Time N T preheating
  Until: 13:30,                             !- Time preheating N {hh:mm}
  24.32,          !- Value Until Time N T preheating
  Until: 13:45,                             !- Time preheating N {hh:mm}
  24.37,          !- Value Until Time N T preheating
  Until: 14:00,                             !- Time preheating N {hh:mm}
  24.42,          !- Value Until Time N T preheating
  Until: 14:15,                             !- Time preheating N {hh:mm}
  24.47,          !- Value Until Time N T preheating
  Until: 14:30,                             !- Time preheating N {hh:mm}
  24.53,          !- Value Until Time N T preheating
  Until: 14:45,                             !- Time preheating N {hh:mm}
  24.58,          !- Value Until Time N T preheating
  Until: 15:00,                             !- Time preheating N {hh:mm}
  24.63,          !- Value Until Time N T preheating
  Until: 15:15,                             !- Time preheating N {hh:mm}
  24.68,          !- Value Until Time N T preheating
  Until: 15:30,                             !- Time preheating N {hh:mm}
  24.74,          !- Value Until Time N T preheating
  Until: 15:45,                             !- Time preheating N {hh:mm}
  24.79,          !- Value Until Time N T preheating
  Until: 16:00,                             !- Time preheating N {hh:mm}
  24.84,          !- Value Until Time N T preheating
  Until: 16:15,                             !- Time preheating N {hh:mm}
  24.89,          !- Value Until Time N T preheating
  Until: 16:30,                             !- Time preheating N {hh:mm}
  24.95,          !- Value Until Time N T preheating
  Until: 16:45,                             !- Time preheating N {hh:mm}
  25.0,          !- Value Until Time N T preheating
  Until: 17:00,                          !- Time 1 {hh:mm}
  24,               !- Value Until Time 1
  Until: 19:00,                            !- Time 2 {hh:mm}
  24,      !- Value Until Time 2
  Until 24:00,                                  !- Time 3 {hh:mm}
  24;               !- Value Until Time 3



Schedule:Compact,
  schedule_coolingsetpoint_fl0_thz0,      !- Name
  Temperature,                            !- Schedule Type Limits Name
  Through: 12/31,                         !- Field 1
  For: AllDays,                           !- Field 2
  Until: 24:00,                           !- Field 3
  28;                                     !- Field 4

 ! (e.g. if 4 fls TOTAL_FLOORS_LIST=[0...3])



ZoneControl:Thermostat:OperativeTemperature,
  fl1_thz0 Thermostat,          !- ZoneControl:Thermostat Name
  Constant,                   !- Radiative Fraction Input Mode
  0.5,                        !- Fixed Radiative Fraction
  ,                           !- Radiative Fraction Schedule
  AdaptiveASH55CentralLine;   !- Adaptive Comfort Model Type !!!! adaptive comfort models only apply to cooling mode 


ZoneControl:Thermostat,
  fl1_thz0 Thermostat,                    !- Name
  fl1_thz0,                               !- Zone or ZoneList Name
  schedule_thermostatControl_fl1_thz0,           !- Control Type Schedule Name
  ThermostatSetpoint:DualSetpoint,        !- Control 1 Object Type
  thermostatControl_fl1_thz0,      !- Control 1 Name
  ,                                       !- Control 2 Object Type
  ,                                       !- Control 2 Name
  ,                                       !- Control 3 Object Type
  ,                                       !- Control 3 Name
  ,                                       !- Control 4 Object Type
  ,                                       !- Control 4 Name
  0;                                      !- Temperature Difference Between Cutout And Setpoint {deltaC}

Schedule:Compact,
  schedule_thermostatControl_fl1_thz0,           !- Name
  schedule_limits_thermostatControl, !- Schedule Type Limits Name
  Through: 12/31,                         !- Field 1
  For: AllDays,                           !- Field 2
  Until: 24:00,                           !- Field 3
  4;                                      !- Field 4

ThermostatSetpoint:DualSetpoint,
  thermostatControl_fl1_thz0,      !- Name
  schedule_heatingsetpoint_fl1_thz0,      !- Heating Setpoint Temperature Schedule Name
  schedule_coolingsetpoint_fl1_thz0;      !- Cooling Setpoint Temperature Schedule Name

!Schedule:Compact,
!  schedule_heatingsetpoint_fl1_thz0,      !- Name
!  Temperature,                            !- Schedule Type Limits Name
!  Through: 12/31,                       
!  For: AllDays,                         
!  until: 9:00,                          
!  24,                                    
!  Until: 17:00,                           
!  21,                                   
!  Until: 19:00,
!  21                          
!  Until: 24:00,                        
!  21;                               

Schedule:Compact,
  schedule_heatingsetpoint_fl1_thz0,              !- Name
  Temperature,                          !- Schedule Type Limits Name
  Through: 12/31,                       
  For: AllDays, 
  Until: 12:00,                             !- Time preheating N {hh:mm}
  24.0,          !- Value Until Time N T preheating
  Until: 12:15,                             !- Time preheating N {hh:mm}
  24.05,          !- Value Until Time N T preheating
  Until: 12:30,                             !- Time preheating N {hh:mm}
  24.11,          !- Value Until Time N T preheating
  Until: 12:45,                             !- Time preheating N {hh:mm}
  24.16,          !- Value Until Time N T preheating
  Until: 13:00,                             !- Time preheating N {hh:mm}
  24.21,          !- Value Until Time N T preheating
  Until: 13:15,                             !- Time preheating N {hh:mm}
  24.26,          !- Value Until Time N T preheating
  Until: 13:30,                             !- Time preheating N {hh:mm}
  24.32,          !- Value Until Time N T preheating
  Until: 13:45,                             !- Time preheating N {hh:mm}
  24.37,          !- Value Until Time N T preheating
  Until: 14:00,                             !- Time preheating N {hh:mm}
  24.42,          !- Value Until Time N T preheating
  Until: 14:15,                             !- Time preheating N {hh:mm}
  24.47,          !- Value Until Time N T preheating
  Until: 14:30,                             !- Time preheating N {hh:mm}
  24.53,          !- Value Until Time N T preheating
  Until: 14:45,                             !- Time preheating N {hh:mm}
  24.58,          !- Value Until Time N T preheating
  Until: 15:00,                             !- Time preheating N {hh:mm}
  24.63,          !- Value Until Time N T preheating
  Until: 15:15,                             !- Time preheating N {hh:mm}
  24.68,          !- Value Until Time N T preheating
  Until: 15:30,                             !- Time preheating N {hh:mm}
  24.74,          !- Value Until Time N T preheating
  Until: 15:45,                             !- Time preheating N {hh:mm}
  24.79,          !- Value Until Time N T preheating
  Until: 16:00,                             !- Time preheating N {hh:mm}
  24.84,          !- Value Until Time N T preheating
  Until: 16:15,                             !- Time preheating N {hh:mm}
  24.89,          !- Value Until Time N T preheating
  Until: 16:30,                             !- Time preheating N {hh:mm}
  24.95,          !- Value Until Time N T preheating
  Until: 16:45,                             !- Time preheating N {hh:mm}
  25.0,          !- Value Until Time N T preheating
  Until: 17:00,                          !- Time 1 {hh:mm}
  24,               !- Value Until Time 1
  Until: 19:00,                            !- Time 2 {hh:mm}
  24,      !- Value Until Time 2
  Until 24:00,                                  !- Time 3 {hh:mm}
  24;               !- Value Until Time 3



Schedule:Compact,
  schedule_coolingsetpoint_fl1_thz0,      !- Name
  Temperature,                            !- Schedule Type Limits Name
  Through: 12/31,                         !- Field 1
  For: AllDays,                           !- Field 2
  Until: 24:00,                           !- Field 3
  28;                                     !- Field 4

 ! (e.g. if 4 fls TOTAL_FLOORS_LIST=[0...3])



ZoneControl:Thermostat:OperativeTemperature,
  fl2_thz0 Thermostat,          !- ZoneControl:Thermostat Name
  Constant,                   !- Radiative Fraction Input Mode
  0.5,                        !- Fixed Radiative Fraction
  ,                           !- Radiative Fraction Schedule
  AdaptiveASH55CentralLine;   !- Adaptive Comfort Model Type !!!! adaptive comfort models only apply to cooling mode 


ZoneControl:Thermostat,
  fl2_thz0 Thermostat,                    !- Name
  fl2_thz0,                               !- Zone or ZoneList Name
  schedule_thermostatControl_fl2_thz0,           !- Control Type Schedule Name
  ThermostatSetpoint:DualSetpoint,        !- Control 1 Object Type
  thermostatControl_fl2_thz0,      !- Control 1 Name
  ,                                       !- Control 2 Object Type
  ,                                       !- Control 2 Name
  ,                                       !- Control 3 Object Type
  ,                                       !- Control 3 Name
  ,                                       !- Control 4 Object Type
  ,                                       !- Control 4 Name
  0;                                      !- Temperature Difference Between Cutout And Setpoint {deltaC}

Schedule:Compact,
  schedule_thermostatControl_fl2_thz0,           !- Name
  schedule_limits_thermostatControl, !- Schedule Type Limits Name
  Through: 12/31,                         !- Field 1
  For: AllDays,                           !- Field 2
  Until: 24:00,                           !- Field 3
  4;                                      !- Field 4

ThermostatSetpoint:DualSetpoint,
  thermostatControl_fl2_thz0,      !- Name
  schedule_heatingsetpoint_fl2_thz0,      !- Heating Setpoint Temperature Schedule Name
  schedule_coolingsetpoint_fl2_thz0;      !- Cooling Setpoint Temperature Schedule Name

!Schedule:Compact,
!  schedule_heatingsetpoint_fl2_thz0,      !- Name
!  Temperature,                            !- Schedule Type Limits Name
!  Through: 12/31,                       
!  For: AllDays,                         
!  until: 9:00,                          
!  24,                                    
!  Until: 17:00,                           
!  21,                                   
!  Until: 19:00,
!  21                          
!  Until: 24:00,                        
!  21;                               

Schedule:Compact,
  schedule_heatingsetpoint_fl2_thz0,              !- Name
  Temperature,                          !- Schedule Type Limits Name
  Through: 12/31,                       
  For: AllDays, 
  Until: 12:00,                             !- Time preheating N {hh:mm}
  24.0,          !- Value Until Time N T preheating
  Until: 12:15,                             !- Time preheating N {hh:mm}
  24.05,          !- Value Until Time N T preheating
  Until: 12:30,                             !- Time preheating N {hh:mm}
  24.11,          !- Value Until Time N T preheating
  Until: 12:45,                             !- Time preheating N {hh:mm}
  24.16,          !- Value Until Time N T preheating
  Until: 13:00,                             !- Time preheating N {hh:mm}
  24.21,          !- Value Until Time N T preheating
  Until: 13:15,                             !- Time preheating N {hh:mm}
  24.26,          !- Value Until Time N T preheating
  Until: 13:30,                             !- Time preheating N {hh:mm}
  24.32,          !- Value Until Time N T preheating
  Until: 13:45,                             !- Time preheating N {hh:mm}
  24.37,          !- Value Until Time N T preheating
  Until: 14:00,                             !- Time preheating N {hh:mm}
  24.42,          !- Value Until Time N T preheating
  Until: 14:15,                             !- Time preheating N {hh:mm}
  24.47,          !- Value Until Time N T preheating
  Until: 14:30,                             !- Time preheating N {hh:mm}
  24.53,          !- Value Until Time N T preheating
  Until: 14:45,                             !- Time preheating N {hh:mm}
  24.58,          !- Value Until Time N T preheating
  Until: 15:00,                             !- Time preheating N {hh:mm}
  24.63,          !- Value Until Time N T preheating
  Until: 15:15,                             !- Time preheating N {hh:mm}
  24.68,          !- Value Until Time N T preheating
  Until: 15:30,                             !- Time preheating N {hh:mm}
  24.74,          !- Value Until Time N T preheating
  Until: 15:45,                             !- Time preheating N {hh:mm}
  24.79,          !- Value Until Time N T preheating
  Until: 16:00,                             !- Time preheating N {hh:mm}
  24.84,          !- Value Until Time N T preheating
  Until: 16:15,                             !- Time preheating N {hh:mm}
  24.89,          !- Value Until Time N T preheating
  Until: 16:30,                             !- Time preheating N {hh:mm}
  24.95,          !- Value Until Time N T preheating
  Until: 16:45,                             !- Time preheating N {hh:mm}
  25.0,          !- Value Until Time N T preheating
  Until: 17:00,                          !- Time 1 {hh:mm}
  24,               !- Value Until Time 1
  Until: 19:00,                            !- Time 2 {hh:mm}
  24,      !- Value Until Time 2
  Until 24:00,                                  !- Time 3 {hh:mm}
  24;               !- Value Until Time 3



Schedule:Compact,
  schedule_coolingsetpoint_fl2_thz0,      !- Name
  Temperature,                            !- Schedule Type Limits Name
  Through: 12/31,                         !- Field 1
  For: AllDays,                           !- Field 2
  Until: 24:00,                           !- Field 3
  28;                                     !- Field 4



! ################
! HVAC - LOOPS
! ################

! ######
! HVAC
! ######

 ! (e.g. if 4 fls TOTAL_FLOORS_LIST=[0...3])

ZoneHVAC:EquipmentConnections,
  fl0_thz0,                               !- Zone Name
  fl0_thz0 Equipment List,                !- Zone Conditioning Equipment List Name
  ,                                       !- Zone Air Inlet Node or NodeList Name
  ,                                       !- Zone Air Exhaust Node or NodeList Name
  node_air_fl0_thz0;                                 !- Zone Air Node Name

 ! (e.g. if 4 fls TOTAL_FLOORS_LIST=[0...3])

ZoneHVAC:EquipmentConnections,
  fl1_thz0,                               !- Zone Name
  fl1_thz0 Equipment List,                !- Zone Conditioning Equipment List Name
  ,                                       !- Zone Air Inlet Node or NodeList Name
  ,                                       !- Zone Air Exhaust Node or NodeList Name
  node_air_fl1_thz0;                                 !- Zone Air Node Name

 ! (e.g. if 4 fls TOTAL_FLOORS_LIST=[0...3])

ZoneHVAC:EquipmentConnections,
  fl2_thz0,                               !- Zone Name
  fl2_thz0 Equipment List,                !- Zone Conditioning Equipment List Name
  ,                                       !- Zone Air Inlet Node or NodeList Name
  ,                                       !- Zone Air Exhaust Node or NodeList Name
  node_air_fl2_thz0;                                 !- Zone Air Node Name


! ######
! HVAC - GEN LOOP WITH 2 HX
! ######

PlantLoop,
  plantloop_gen,                          !- Name
  Water,                                  !- Fluid Type
  ,                                       !- User Defined Fluid Type
  plantloop_gen Operation Schemes,        !- Plant Equipment Operation Scheme Name
  node_gen_5,                             !- Loop Temperature Setpoint Node Name
  100,                                    !- Maximum Loop Temperature {C}
  0,                                      !- Minimum Loop Temperature {C}
  Autosize,                               !- Maximum Loop Flow Rate {m3/s}
  0,                                      !- Minimum Loop Flow Rate {m3/s}
  Autocalculate,                          !- Plant Loop Volume {m3}
  node_gen_1,                             !- Plant Side Inlet Node Name
  node_gen_5,                             !- Plant Side Outlet Node Name
  plantloop_gen Supply Branches,          !- Plant Side Branch List Name
  plantloop_gen Supply Connector List,    !- Plant Side Connector List Name
  node_gen_6,                             !- Demand Side Inlet Node Name
  node_gen_9,                             !- Demand Side Outlet Node Name
  plantloop_gen Demand Branches,          !- Demand Side Branch List Name
  plantloop_gen Demand Connector List,    !- Demand Side Connector List Name
  SequentialLoad,                                !- Load Distribution Scheme
  ,                                       !- Availability Manager List Name
  SingleSetpoint,                         !- Plant Loop Demand Calculation Scheme
  None;                                   !- Common Pipe Simulation

Sizing:Plant,
  plantloop_gen,                          !- Plant or Condenser Loop Name
  Heating,                                !- Loop Type
  58,                                     !- Design Loop Exit Temperature {C}
  2,                                      !- Loop Design Temperature Difference {deltaC}
  NonCoincident,                          !- Sizing Option
  1,                                      !- Zone Timesteps in Averaging Window
  None;                                   !- Coincident Sizing Factor Mode

SetpointManager:Scheduled,
  setpoint_loop_gen,                      !- Name
  Temperature,                            !- Control Variable
  schedule_setpoint_loop_gen,             !- Schedule Name
  node_gen_5;                             !- Setpoint Node or NodeList Name

Schedule:Constant,
  schedule_setpoint_loop_gen,             !- Name
  ,                                       !- Schedule Type Limits Name
  37.5;                                     !- Hourly Value

!Schedule:Compact,
!  schedule_setpoint_loop_gen,              !- Name
!  Temperature,                          !- Schedule Type Limits Name
!  Through: 12/31,                       
!  For: AllDays, 
!  Until: 12:00,                             !- Time preheating N {hh:mm}
!  37.5,          !- Value Until Time N T preheating
!  Until: 17:00,                          !- Time 1 {hh:mm}
!  38.5,               !- Value Until Time 1
!  Until: 24:00,                                  !- Time 3 {hh:mm}
!  37.5;               !- Value Until Time 3

BranchList,
  plantloop_gen Supply Branches,          !- Name
  plantloop_gen Supply Inlet Branch,      !- Branch Name 1
  plantloop_gen Supply Branch 1,          !- Branch Name 2
  plantloop_gen Supply Outlet Branch;     !- Branch Name 3

ConnectorList,
  plantloop_gen Supply Connector List,    !- Name
  Connector:Splitter,                     !- Connector Object Type 1
  plantloop_gen Supply Splitter,          !- Connector Name 1
  Connector:Mixer,                        !- Connector Object Type 2
  plantloop_gen Supply Mixer;             !- Connector Name 2

Connector:Splitter,
  plantloop_gen Supply Splitter,          !- Name
  plantloop_gen Supply Inlet Branch,      !- Inlet Branch Name
  plantloop_gen Supply Branch 1;          !- Outlet Branch Name 1

Connector:Mixer,
  plantloop_gen Supply Mixer,             !- Name
  plantloop_gen Supply Outlet Branch,     !- Outlet Branch Name
  plantloop_gen Supply Branch 1;          !- Inlet Branch Name 1

Branch,
  plantloop_gen Supply Inlet Branch,      !- Name
  ,                                       !- Pressure Drop Curve Name
  Pump:VariableSpeed,                     !- Component Object Type 1
  pump_gen,                               !- Component Name 1
  node_gen_1,                             !- Component Inlet Node Name 1
  node_gen_2;                             !- Component Outlet Node Name 1

Pump:VariableSpeed,
  pump_gen,                               !- Name
  node_gen_1,                             !- Inlet Node Name
  node_gen_2,                             !- Outlet Node Name
  Autosize,                               !- Design Maximum Flow Rate {m3/s}
  20000,                                 !- Design Pump Head {Pa} ( def. 179352)
  Autosize,                               !- Design Power Consumption {W}
  0.9,                                    !- Motor Efficiency
  0,                                      !- Fraction of Motor Inefficiencies to Fluid Stream
  0,                                      !- Coefficient 1 of the Part Load Performance Curve
  1,                                      !- Coefficient 2 of the Part Load Performance Curve
  0,                                      !- Coefficient 3 of the Part Load Performance Curve
  0,                                      !- Coefficient 4 of the Part Load Performance Curve
  0,                                      !- Design Minimum Flow Rate {m3/s}
  Intermittent,                             !- Pump Control Type
  ,                                       !- Pump Flow Rate Schedule Name
  ,                                       !- Pump Curve Name
  ,                                       !- Impeller Diameter {m}
  ,                                       !- VFD Control Type
  ,                                       !- Pump RPM Schedule Name
  ,                                       !- Minimum Pressure Schedule {Pa}
  ,                                       !- Maximum Pressure Schedule {Pa}
  ,                                       !- Minimum RPM Schedule {rev/min}
  ,                                       !- Maximum RPM Schedule {rev/min}
  ,                                       !- Zone Name
  0.5,                                    !- Skin Loss Radiative Fraction
  PowerPerFlowPerPressure,                !- Design Power Sizing Method
  348701.1,                               !- Design Electric Power per Unit Flow Rate {W/(m3/s)}
  1.282051282,                            !- Design Shaft Power per Unit Flow Rate per Unit Head {W/((m3/s)-Pa)}
  0,                                      !- Design Minimum Flow Rate Fraction
  General;                                !- End-Use Subcategory

OutdoorAir:Node,
  node_outdoor_air;  !- Name

OutdoorAir:Node,
  node_exhaust_air;  !- Name

! ===========================================================================
! IF THERE'S HEAT PUMP -> ADD HEAT PUMP; IF NO HEAT PUMP -> ADD BOILER
! ===========================================================================

 ! (if IS_HEATPUMP_SH == False)

Branch,
  plantloop_gen Supply Branch 1,          !- Name
  ,                                       !- Pressure Drop Curve Name
  Boiler:HotWater,                        !- Component Object Type 1
  boiler_gen,                             !- Component Name 1
  node_gen_3,                             !- Component Inlet Node Name 1
  node_gen_4;                             !- Component Outlet Node Name 1

PlantEquipmentList,
  plantloop_gen Heating Equipment List,   !- Name
  Boiler:HotWater,                        !- Equipment Object Type 1
  boiler_gen;                             !- Equipment Name 1

Boiler:HotWater,
  boiler_gen,                         !- Name
  Diesel,                            !- Fuel Type
  20000,                               !- Nominal Capacity {W}
  0.88,                                    !- Nominal Thermal Efficiency
  LeavingBoiler,                          !- Efficiency Curve Temperature Evaluation Variable
  Boiler Efficiency,                      !- Normalized Boiler Efficiency Curve Name
  Autosize,                               !- Design Water Flow Rate {m3/s}
  0,                                      !- Minimum Part Load Ratio
  1,                                      !- Maximum Part Load Ratio
  1,                                      !- Optimum Part Load Ratio
  node_gen_3,                          !- Boiler Water Inlet Node Name
  node_gen_4,                          !- Boiler Water Outlet Node Name
  99,                                     !- Water Outlet Upper Temperature Limit {C}
  NotModulated,                           !- Boiler Flow Mode
  0,                                      !- On Cycle Parasitic Electric Load {W}
  1,                                      !- Sizing Factor
  General,                                !- End-Use Subcategory
  0;                                      !- Off Cycle Parasitic Fuel Load {W}

 

! ===========================================================================
! ===========================================================================

Branch,
  plantloop_gen Supply Outlet Branch,     !- Name
  ,                                       !- Pressure Drop Curve Name
  Pipe:Adiabatic,                         !- Component Object Type 1
  plantloop_gen Supply Outlet Pipe,       !- Component Name 1
  plantloop_gen Supply Outlet Pipe Node,  !- Component Inlet Node Name 1
  node_gen_5;                             !- Component Outlet Node Name 1

Pipe:Adiabatic,
  plantloop_gen Supply Outlet Pipe,       !- Name
  plantloop_gen Supply Outlet Pipe Node,  !- Inlet Node Name
  node_gen_5;                             !- Outlet Node Name

BranchList,
  plantloop_gen Demand Branches,          !- Name
  plantloop_gen Demand Inlet Branch,      !- Branch Name 1
  plantloop_gen Demand Branch 1,          !- Branch Name 2
  plantloop_gen Demand Branch 2,          !- Branch Name 3
  plantloop_gen Demand Bypass Branch,     !- Branch Name 4
  plantloop_gen Demand Outlet Branch;     !- Branch Name 5

ConnectorList,
  plantloop_gen Demand Connector List,    !- Name
  Connector:Splitter,                     !- Connector Object Type 1
  plantloop_gen Demand Splitter,          !- Connector Name 1
  Connector:Mixer,                        !- Connector Object Type 2
  plantloop_gen Demand Mixer;             !- Connector Name 2

Connector:Splitter,
  plantloop_gen Demand Splitter,          !- Name
  plantloop_gen Demand Inlet Branch,      !- Inlet Branch Name
  plantloop_gen Demand Branch 1,          !- Outlet Branch Name 1
  plantloop_gen Demand Branch 2,          !- Outlet Branch Name 2
  plantloop_gen Demand Bypass Branch;     !- Outlet Branch Name 3

Connector:Mixer,
  plantloop_gen Demand Mixer,             !- Name
  plantloop_gen Demand Outlet Branch,     !- Outlet Branch Name
  plantloop_gen Demand Branch 1,          !- Inlet Branch Name 1
  plantloop_gen Demand Branch 2,          !- Inlet Branch Name 2
  plantloop_gen Demand Bypass Branch;     !- Inlet Branch Name 3

Branch,
  plantloop_gen Demand Inlet Branch,      !- Name
  ,                                       !- Pressure Drop Curve Name
  Pipe:Adiabatic,                         !- Component Object Type 1
  plantloop_gen Demand Inlet Pipe,        !- Component Name 1
  node_gen_6,                             !- Component Inlet Node Name 1
  plantloop_gen Demand Inlet Pipe Node;   !- Component Outlet Node Name 1

Pipe:Adiabatic,
  plantloop_gen Demand Inlet Pipe,        !- Name
  node_gen_6,                             !- Inlet Node Name
  plantloop_gen Demand Inlet Pipe Node;   !- Outlet Node Name

Branch,
  plantloop_gen Demand Branch 1,          !- Name
  ,                                       !- Pressure Drop Curve Name
  HeatExchanger:FluidToFluid,             !- Component Object Type 1
  hx_dhw,                                 !- Component Name 1
  node_gen_7_0,                           !- Component Inlet Node Name 1
  node_gen_8_0;                           !- Component Outlet Node Name 1

HeatExchanger:FluidToFluid,
  hx_dhw,                                 !- Name
  HX_DHW_OnOff,                                       !- Availability Schedule Name
  node_gen_7_0,                           !- Loop Demand Side Inlet Node Name
  node_gen_8_0,                           !- Loop Demand Side Outlet Node Name
  Autosize,                               !- Loop Demand Side Design Flow Rate {m3/s}
  node_hx_dhw_3_0,                        !- Loop Supply Side Inlet Node Name
  node_hx_dhw_4_0,                        !- Loop Supply Side Outlet Node Name
  Autosize,                               !- Loop Supply Side Design Flow Rate {m3/s}
  Ideal,                                  !- Heat Exchange Model Type
  Autosize,                               !- Heat Exchanger U-Factor Times Area Value {W/K}
  UncontrolledOn,                         !- Control Type
  node_hx_dhw_6,                          !- Heat Exchanger Setpoint Node Name
  0.01,                                   !- Minimum Temperature Difference to Activate Heat Exchanger {deltaC}
  LoopToLoop,                             !- Heat Transfer Metering End Use Type
  ,                                       !- Component Override Loop Supply Side Inlet Node Name
  ,                                       !- Component Override Loop Demand Side Inlet Node Name
  Loop,                                   !- Component Override Cooling Control Temperature Mode
  1,                                      !- Sizing Factor
  0,                                      !- Operation Minimum Temperature Limit {C}
  100;                                    !- Operation Maximum Temperature Limit {C}


Schedule:Constant,
  HX_DHW_OnOff,
  OnOff,
  0;




Branch,
  plantloop_gen Demand Branch 2,          !- Name
  ,                                       !- Pressure Drop Curve Name
  HeatExchanger:FluidToFluid,             !- Component Object Type 1
  hx_sh,                                  !- Component Name 1
  node_gen_7_1,                           !- Component Inlet Node Name 1
  node_gen_8_1;                           !- Component Outlet Node Name 1

HeatExchanger:FluidToFluid,
  hx_sh,                                  !- Name
  HX_SH_OnOff,                            !- Availability Schedule Name
  node_gen_7_1,                           !- Loop Demand Side Inlet Node Name
  node_gen_8_1,                           !- Loop Demand Side Outlet Node Name
  Autosize,                               !- Loop Demand Side Design Flow Rate {m3/s}
  node_hx_sh_3,                           !- Loop Supply Side Inlet Node Name
  node_hx_sh_4,                           !- Loop Supply Side Outlet Node Name
  Autosize,                               !- Loop Supply Side Design Flow Rate {m3/s}
  Ideal,                                  !- Heat Exchange Model Type
  Autosize,                               !- Heat Exchanger U-Factor Times Area Value {W/K}
  UncontrolledOn,                         !- Control Type
  node_hx_sh_5,                           !- Heat Exchanger Setpoint Node Name
  0.01,                                   !- Minimum Temperature Difference to Activate Heat Exchanger {deltaC}
  LoopToLoop,                             !- Heat Transfer Metering End Use Type
  ,                                       !- Component Override Loop Supply Side Inlet Node Name
  ,                                       !- Component Override Loop Demand Side Inlet Node Name
  Loop,                                   !- Component Override Cooling Control Temperature Mode
  1,                                      !- Sizing Factor
  0,                                      !- Operation Minimum Temperature Limit {C}
  100;                                    !- Operation Maximum Temperature Limit {C}

 ! if no EMS (because HP only supplies SH) then manually define the schedule to be 0 during summer

  Schedule:Compact,
  HX_SH_OnOff, 
  OnOff,         
  Through: 5/15,                          
  For: AllDays,                           
  Until: 24:00,                           
  1,                                      
  Through: 9/30,                          
  For: AllDays,                           
  Until: 24:00,                           
  0,                                      
  Through: 12/31,                         
  For: AllDays,                           
  Until: 24:00,                           
  1;   



Branch,
  plantloop_gen Demand Bypass Branch,     !- Name
  ,                                       !- Pressure Drop Curve Name
  Pipe:Adiabatic,                         !- Component Object Type 1
  plantloop_gen Demand Bypass Pipe,       !- Component Name 1
  plantloop_gen Demand Bypass Pipe Inlet Node, !- Component Inlet Node Name 1
  plantloop_gen Demand Bypass Pipe Outlet Node; !- Component Outlet Node Name 1

Pipe:Adiabatic,
  plantloop_gen Demand Bypass Pipe,       !- Name
  plantloop_gen Demand Bypass Pipe Inlet Node, !- Inlet Node Name
  plantloop_gen Demand Bypass Pipe Outlet Node; !- Outlet Node Name

Branch,
  plantloop_gen Demand Outlet Branch,     !- Name
  ,                                       !- Pressure Drop Curve Name
  Pipe:Adiabatic,                         !- Component Object Type 1
  plantloop_gen Demand Outlet Pipe,       !- Component Name 1
  plantloop_gen Demand Outlet Pipe Node,  !- Component Inlet Node Name 1
  node_gen_9;                             !- Component Outlet Node Name 1

Pipe:Adiabatic,
  plantloop_gen Demand Outlet Pipe,       !- Name
  plantloop_gen Demand Outlet Pipe Node,  !- Inlet Node Name
  node_gen_9;                             !- Outlet Node Name

PlantEquipmentOperationSchemes,
  plantloop_gen Operation Schemes,        !- Name
  PlantEquipmentOperation:HeatingLoad,    !- Control Scheme Object Type 1
  plantloop_gen Heating Operation Scheme, !- Control Scheme Name 1
  Always On Discrete;                     !- Control Scheme Schedule Name 1

PlantEquipmentOperation:HeatingLoad,
  plantloop_gen Heating Operation Scheme, !- Name
  0,                                      !- Load Range Lower Limit 1 {W}
  1000000000,                             !- Load Range Upper Limit 1 {W}
  plantloop_gen Heating Equipment List;   !- Range Equipment List Name 1

! ###################################################################################
! ###################################################################################
! ###################################################################################

! ######
! HVAC - HEAT EXCHANGER TO DHW TANK WITH SOLAR 
! ######

PlantLoop,
  plantloop_hx_dhw,                       !- Name
  Water,                                  !- Fluid Type
  ,                                       !- User Defined Fluid Type
  plantloop_hx_dhw Operation Schemes,     !- Plant Equipment Operation Scheme Name
  node_hx_dhw_6,                          !- Loop Temperature Setpoint Node Name
  100,                                    !- Maximum Loop Temperature {C}
  0,                                      !- Minimum Loop Temperature {C}
  Autosize,                               !- Maximum Loop Flow Rate {m3/s}
  0,                                      !- Minimum Loop Flow Rate {m3/s}
  Autocalculate,                          !- Plant Loop Volume {m3}
  node_hx_dhw_1,                          !- Plant Side Inlet Node Name
  node_hx_dhw_6,                          !- Plant Side Outlet Node Name
  plantloop_hx_dhw Supply Branches,       !- Plant Side Branch List Name
  plantloop_hx_dhw Supply Connector List, !- Plant Side Connector List Name
  node_hx_dhw_7,                          !- Demand Side Inlet Node Name
  node_hx_dhw_10,                         !- Demand Side Outlet Node Name
  plantloop_hx_dhw Demand Branches,       !- Demand Side Branch List Name
  plantloop_hx_dhw Demand Connector List, !- Demand Side Connector List Name
  SequentialLoad,                         !- Load Distribution Scheme
  ,                                       !- Availability Manager List Name
  SingleSetpoint,                         !- Plant Loop Demand Calculation Scheme
  None;                                   !- Common Pipe Simulation

Sizing:Plant,
  plantloop_hx_dhw,                       !- Plant or Condenser Loop Name
  Heating,                                !- Loop Type
  58,                                     !- Design Loop Exit Temperature {C}
  2,                                      !- Loop Design Temperature Difference {deltaC}
  NonCoincident,                          !- Sizing Option
  1,                                      !- Zone Timesteps in Averaging Window
  None;                                   !- Coincident Sizing Factor Mode

BranchList,
  plantloop_hx_dhw Supply Branches,       !- Name
  plantloop_hx_dhw Supply Inlet Branch,   !- Branch Name 1
  plantloop_hx_dhw Supply Branch 1,       !- Branch Name 2
  plantloop_hx_dhw Supply Branch 2,       !- Branch Name 3
  plantloop_hx_dhw Supply Outlet Branch;  !- Branch Name 4

ConnectorList,
  plantloop_hx_dhw Supply Connector List, !- Name
  Connector:Splitter,                     !- Connector Object Type 1
  plantloop_hx_dhw Supply Splitter,       !- Connector Name 1
  Connector:Mixer,                        !- Connector Object Type 2
  plantloop_hx_dhw Supply Mixer;          !- Connector Name 2

Connector:Splitter,
  plantloop_hx_dhw Supply Splitter,       !- Name
  plantloop_hx_dhw Supply Inlet Branch,   !- Inlet Branch Name
  plantloop_hx_dhw Supply Branch 1,       !- Outlet Branch Name 1
  plantloop_hx_dhw Supply Branch 2;       !- Outlet Branch Name 2

Connector:Mixer,
  plantloop_hx_dhw Supply Mixer,          !- Name
  plantloop_hx_dhw Supply Outlet Branch,  !- Outlet Branch Name
  plantloop_hx_dhw Supply Branch 1,       !- Inlet Branch Name 1
  plantloop_hx_dhw Supply Branch 2;       !- Inlet Branch Name 2

Branch,
  plantloop_hx_dhw Supply Inlet Branch,   !- Name
  ,                                       !- Pressure Drop Curve Name
  Pump:VariableSpeed,                     !- Component Object Type 1
  pump_hx_dhw,                            !- Component Name 1
  node_hx_dhw_1,                          !- Component Inlet Node Name 1
  node_hx_dhw_2;                          !- Component Outlet Node Name 1

Pump:VariableSpeed,
  pump_hx_dhw,                            !- Name
  node_hx_dhw_1,                          !- Inlet Node Name
  node_hx_dhw_2,                          !- Outlet Node Name
  Autosize,                               !- Design Maximum Flow Rate {m3/s}
  20000,                                 !- Design Pump Head {Pa} ( def. 179352)
  Autosize,                               !- Design Power Consumption {W}
  0.9,                                    !- Motor Efficiency
  0,                                      !- Fraction of Motor Inefficiencies to Fluid Stream
  0,                                      !- Coefficient 1 of the Part Load Performance Curve
  1,                                      !- Coefficient 2 of the Part Load Performance Curve
  0,                                      !- Coefficient 3 of the Part Load Performance Curve
  0,                                      !- Coefficient 4 of the Part Load Performance Curve
  0,                                      !- Design Minimum Flow Rate {m3/s}
  Intermittent,                             !- Pump Control Type
  ,                                       !- Pump Flow Rate Schedule Name
  ,                                       !- Pump Curve Name
  ,                                       !- Impeller Diameter {m}
  ,                                       !- VFD Control Type
  ,                                       !- Pump RPM Schedule Name
  ,                                       !- Minimum Pressure Schedule {Pa}
  ,                                       !- Maximum Pressure Schedule {Pa}
  ,                                       !- Minimum RPM Schedule {rev/min}
  ,                                       !- Maximum RPM Schedule {rev/min}
  ,                                       !- Zone Name
  0.5,                                    !- Skin Loss Radiative Fraction
  PowerPerFlowPerPressure,                !- Design Power Sizing Method
  348701.1,                               !- Design Electric Power per Unit Flow Rate {W/(m3/s)}
  1.282051282,                            !- Design Shaft Power per Unit Flow Rate per Unit Head {W/((m3/s)-Pa)}
  0,                                      !- Design Minimum Flow Rate Fraction
  General;                                !- End-Use Subcategory

Branch,
  plantloop_hx_dhw Supply Branch 1,       !- Name
  ,                                       !- Pressure Drop Curve Name
  HeatExchanger:FluidToFluid,             !- Component Object Type 1
  hx_dhw,                                 !- Component Name 1
  node_hx_dhw_3_0,                        !- Component Inlet Node Name 1
  node_hx_dhw_4_0;                        !- Component Outlet Node Name 1

Branch,
  plantloop_hx_dhw Supply Branch 2,       !- Name
  ,                                       !- Pressure Drop Curve Name
  HeatExchanger:FluidToFluid,             !- Component Object Type 1
  hx_sol,                                 !- Component Name 1
  node_hx_dhw_3_1,                        !- Component Inlet Node Name 1
  node_hx_dhw_4_1;                        !- Component Outlet Node Name 1

HeatExchanger:FluidToFluid,
  hx_sol,                                 !- Name
  schedule_hx_sol_availability,            !- Availability Schedule Name
  node_sol_hx_7,                          !- Loop Demand Side Inlet Node Name
  node_sol_hx_8,                          !- Loop Demand Side Outlet Node Name
  Autosize,                               !- Loop Demand Side Design Flow Rate {m3/s}
  node_hx_dhw_3_1,                        !- Loop Supply Side Inlet Node Name
  node_hx_dhw_4_1,                        !- Loop Supply Side Outlet Node Name
  Autosize,                               !- Loop Supply Side Design Flow Rate {m3/s}
  Ideal,                                  !- Heat Exchange Model Type
  Autosize,                               !- Heat Exchanger U-Factor Times Area Value {W/K}
  UncontrolledOn,                         !- Control Type
  node_hx_dhw_6,                          !- Heat Exchanger Setpoint Node Name
  0.01,                                   !- Minimum Temperature Difference to Activate Heat Exchanger {deltaC}
  LoopToLoop,                             !- Heat Transfer Metering End Use Type
  ,                                       !- Component Override Loop Supply Side Inlet Node Name
  ,                                       !- Component Override Loop Demand Side Inlet Node Name
  Loop,                                   !- Component Override Cooling Control Temperature Mode
  1,                                      !- Sizing Factor
  0,                                      !- Operation Minimum Temperature Limit {C}
  100;                                    !- Operation Maximum Temperature Limit {C}

Branch,
  plantloop_hx_dhw Supply Outlet Branch,  !- Name
  ,                                       !- Pressure Drop Curve Name
  Boiler:HotWater,                        !- Component Object Type 1
  aux_heater_dhw,                         !- Component Name 1
  node_hx_dhw_5,                          !- Component Inlet Node Name 1
  node_hx_dhw_6;                          !- Component Outlet Node Name 1

Boiler:HotWater,
  aux_heater_dhw,                         !- Name
  Electricity,                          !- Fuel Type
  1500,                !- Nominal Capacity {W}
  0.88,                 !- Nominal Thermal Efficiency
  LeavingBoiler,                          !- Efficiency Curve Temperature Evaluation Variable
  Boiler Efficiency,                      !- Normalized Boiler Efficiency Curve Name
  Autosize,                               !- Design Water Flow Rate {m3/s}
  0,                                      !- Minimum Part Load Ratio
  1,                                      !- Maximum Part Load Ratio
  1,                                      !- Optimum Part Load Ratio
  node_hx_dhw_5,                          !- Boiler Water Inlet Node Name
  node_hx_dhw_6,                          !- Boiler Water Outlet Node Name
  99,                                     !- Water Outlet Upper Temperature Limit {C}
  LeavingSetpointModulated,               !- Boiler Flow Mode (NotModulated/LeavingSetpointModulated)
  0,                                      !- On Cycle Parasitic Electric Load {W}
  1,                                      !- Sizing Factor
  General,                                !- End-Use Subcategory
  0;                                      !- Off Cycle Parasitic Fuel Load {W}

SetpointManager:Scheduled,
  setpoint_loop_hx_dhw,                   !- Name
  Temperature,                     !- Control Variable
  schedule_setpoint_loop_hx_dhw,          !- Schedule Name
  node_hx_dhw_6;                          !- Setpoint Node or NodeList Name

Schedule:Constant,
  schedule_setpoint_loop_hx_dhw,          !- Name
  ,                                       !- Schedule Type Limits Name
  50;                                     !- Hourly Value

!Schedule:Compact,
!  schedule_setpoint_loop_hx_dhw,              !- Name
!  Temperature,                          !- Schedule Type Limits Name
!  Through: 12/31,                       
!  For: AllDays, 
!  Until: 12:00,                             !- Time preheating N {hh:mm}
!  50,          !- Value Until Time N T preheating
!  Until: 17:00,                          !- Time 1 {hh:mm}
!  51,               !- Value Until Time 1
!  Until: 24:00,                                  !- Time 3 {hh:mm}
!  50;               !- Value Until Time 3

!Schedule:Constant,
!  schedule_setpoint_loop_hx_dhw,          !- Name
!  ,                                       !- Schedule Type Limits Name
!  60;                                     !- Hourly Value

BranchList,
  plantloop_hx_dhw Demand Branches,       !- Name
  plantloop_hx_dhw Demand Inlet Branch,   !- Branch Name 1
  plantloop_hx_dhw Demand Branch 1,       !- Branch Name 2
  plantloop_hx_dhw Demand Bypass Branch,  !- Branch Name 3
  plantloop_hx_dhw Demand Outlet Branch;  !- Branch Name 4

ConnectorList,
  plantloop_hx_dhw Demand Connector List, !- Name
  Connector:Splitter,                     !- Connector Object Type 1
  plantloop_hx_dhw Demand Splitter,       !- Connector Name 1
  Connector:Mixer,                        !- Connector Object Type 2
  plantloop_hx_dhw Demand Mixer;          !- Connector Name 2

Connector:Splitter,
  plantloop_hx_dhw Demand Splitter,       !- Name
  plantloop_hx_dhw Demand Inlet Branch,   !- Inlet Branch Name
  plantloop_hx_dhw Demand Branch 1,       !- Outlet Branch Name 1
  plantloop_hx_dhw Demand Bypass Branch;  !- Outlet Branch Name 2

Connector:Mixer,
  plantloop_hx_dhw Demand Mixer,          !- Name
  plantloop_hx_dhw Demand Outlet Branch,  !- Outlet Branch Name
  plantloop_hx_dhw Demand Branch 1,       !- Inlet Branch Name 1
  plantloop_hx_dhw Demand Bypass Branch;  !- Inlet Branch Name 2

Branch,
  plantloop_hx_dhw Demand Inlet Branch,   !- Name
  ,                                       !- Pressure Drop Curve Name
  Pipe:Adiabatic,                         !- Component Object Type 1
  plantloop_hx_dhw Demand Inlet Pipe,     !- Component Name 1
  node_hx_dhw_7,                          !- Component Inlet Node Name 1
  plantloop_hx_dhw Demand Inlet Pipe Node; !- Component Outlet Node Name 1

Pipe:Adiabatic,
  plantloop_hx_dhw Demand Inlet Pipe,     !- Name
  node_hx_dhw_7,                          !- Inlet Node Name
  plantloop_hx_dhw Demand Inlet Pipe Node; !- Outlet Node Name

! ===========================================================================
! IF THERE'S DHW STORAGE -> ADD TANK; IF NO DHW STORAGE -> ADD HEAT EXCHANGER
! ===========================================================================

 ! (if IS_TANK_DHW == True)

Branch,
  plantloop_hx_dhw Demand Branch 1,       !- Name
  ,                                       !- Pressure Drop Curve Name
  WaterHeater:Mixed,                      !- Component Object Type 1
  tank_dhw,                               !- Component Name 1
  node_hx_dhw_8,                          !- Component Inlet Node Name 1
  node_hx_dhw_9;                          !- Component Outlet Node Name 1


! ===========================================================================
! ===========================================================================

Branch,
  plantloop_hx_dhw Demand Bypass Branch,  !- Name
  ,                                       !- Pressure Drop Curve Name
  Pipe:Adiabatic,                         !- Component Object Type 1
  plantloop_hx_dhw Demand Bypass Pipe,    !- Component Name 1
  plantloop_hx_dhw Demand Bypass Pipe Inlet Node, !- Component Inlet Node Name 1
  plantloop_hx_dhw Demand Bypass Pipe Outlet Node; !- Component Outlet Node Name 1

Pipe:Adiabatic,
  plantloop_hx_dhw Demand Bypass Pipe,    !- Name
  plantloop_hx_dhw Demand Bypass Pipe Inlet Node, !- Inlet Node Name
  plantloop_hx_dhw Demand Bypass Pipe Outlet Node; !- Outlet Node Name

Branch,
  plantloop_hx_dhw Demand Outlet Branch,  !- Name
  ,                                       !- Pressure Drop Curve Name
  Pipe:Adiabatic,                         !- Component Object Type 1
  plantloop_hx_dhw Demand Outlet Pipe,    !- Component Name 1
  plantloop_hx_dhw Demand Outlet Pipe Node, !- Component Inlet Node Name 1
  node_hx_dhw_10;                         !- Component Outlet Node Name 1

Pipe:Adiabatic,
  plantloop_hx_dhw Demand Outlet Pipe,    !- Name
  plantloop_hx_dhw Demand Outlet Pipe Node, !- Inlet Node Name
  node_hx_dhw_10;                         !- Outlet Node Name


 ! if dhw temperature setpoint is less than 55C

PlantEquipmentOperationSchemes,
  plantloop_hx_dhw Operation Schemes,     !- Name
  PlantEquipmentOperation:HeatingLoad,    !- Control Scheme Object Type 1
  plantloop_hx_dhw Heating Operation Scheme, !- Control Scheme Name 1
  Always On Discrete;                     !- Control Scheme Schedule Name 1
PlantEquipmentOperation:HeatingLoad,
  plantloop_hx_dhw Heating Operation Scheme, !- Name
  0,                                      !- Load Range Lower Limit 1 {W}
  1000000000,                             !- Load Range Upper Limit 1 {W}
  plantloop_hx_dhw Heating Equipment List; !- Range Equipment List Name 1

PlantEquipmentList,
  plantloop_hx_dhw Heating Equipment List, !- Name
  HeatExchanger:FluidToFluid,             !- Equipment Object Type 3
  hx_sol,                                 !- Equipment Name 3
  HeatExchanger:FluidToFluid,             !- Equipment Object Type 1
  hx_dhw,                                 !- Equipment Name 1
  Boiler:HotWater,                        !- Equipment Object Type 2
  aux_heater_dhw;                         !- Equipment Name 2

! ===========================================
! ===========================================
  

! ###################################################################################
! ###################################################################################
! ###################################################################################

! ######
! HVAC - DHW LOOP
! ######

PlantLoop,
  plantloop_dhw,                          !- Name
  Water,                                  !- Fluid Type
  ,                                       !- User Defined Fluid Type
  plantloop_dhw Operation Schemes,        !- Plant Equipment Operation Scheme Name
  node_dhw_5,                             !- Loop Temperature Setpoint Node Name
  100,                                    !- Maximum Loop Temperature {C}
  0,                                      !- Minimum Loop Temperature {C}
  Autosize,                               !- Maximum Loop Flow Rate {m3/s}
  0,                                      !- Minimum Loop Flow Rate {m3/s}
  Autocalculate,                          !- Plant Loop Volume {m3}
  node_dhw_1,                             !- Plant Side Inlet Node Name
  node_dhw_5,                             !- Plant Side Outlet Node Name
  plantloop_dhw Supply Branches,          !- Plant Side Branch List Name
  plantloop_dhw Supply Connector List,    !- Plant Side Connector List Name
  node_dhw_6,                             !- Demand Side Inlet Node Name
  node_dhw_9,                             !- Demand Side Outlet Node Name
  plantloop_dhw Demand Branches,          !- Demand Side Branch List Name
  plantloop_dhw Demand Connector List,    !- Demand Side Connector List Name
  SequentialLoad,                                !- Load Distribution Scheme
  ,                                       !- Availability Manager List Name
  SingleSetpoint,                         !- Plant Loop Demand Calculation Scheme
  None;                                   !- Common Pipe Simulation

Sizing:Plant,
  plantloop_dhw,                          !- Plant or Condenser Loop Name
  Heating,                                !- Loop Type
  58,                                     !- Design Loop Exit Temperature {C}
  2,                                      !- Loop Design Temperature Difference {deltaC}
  NonCoincident,                          !- Sizing Option
  1,                                      !- Zone Timesteps in Averaging Window
  None;                                   !- Coincident Sizing Factor Mode

SetpointManager:Scheduled,
  setpoint_loop_dhw,                      !- Name
  Temperature,                            !- Control Variable
  schedule_setpoint_loop_dhw,             !- Schedule Name
  node_dhw_5;                             !- Setpoint Node or NodeList Name

Schedule:Constant,
  schedule_setpoint_loop_dhw,             !- Name
  ,                                       !- Schedule Type Limits Name
  50;                                     !- Hourly Value


BranchList,
  plantloop_dhw Supply Branches,          !- Name
  plantloop_dhw Supply Inlet Branch,      !- Branch Name 1
  plantloop_dhw Supply Branch 1,          !- Branch Name 2
  plantloop_dhw Supply Outlet Branch;     !- Branch Name 3

ConnectorList,
  plantloop_dhw Supply Connector List,    !- Name
  Connector:Splitter,                     !- Connector Object Type 1
  plantloop_dhw Supply Splitter,          !- Connector Name 1
  Connector:Mixer,                        !- Connector Object Type 2
  plantloop_dhw Supply Mixer;             !- Connector Name 2

Connector:Splitter,
  plantloop_dhw Supply Splitter,          !- Name
  plantloop_dhw Supply Inlet Branch,      !- Inlet Branch Name
  plantloop_dhw Supply Branch 1;          !- Outlet Branch Name 1

Connector:Mixer,
  plantloop_dhw Supply Mixer,             !- Name
  plantloop_dhw Supply Outlet Branch,     !- Outlet Branch Name
  plantloop_dhw Supply Branch 1;          !- Inlet Branch Name 1

Branch,
  plantloop_dhw Supply Inlet Branch,      !- Name
  ,                                       !- Pressure Drop Curve Name
  Pump:VariableSpeed,                     !- Component Object Type 1
  pump_dhw,                               !- Component Name 1
  node_dhw_1,                             !- Component Inlet Node Name 1
  node_dhw_2;                             !- Component Outlet Node Name 1

Pump:VariableSpeed,
  pump_dhw,                               !- Name
  node_dhw_1,                             !- Inlet Node Name
  node_dhw_2,                             !- Outlet Node Name
  Autosize,                               !- Design Maximum Flow Rate {m3/s}
  20000,                                 !- Design Pump Head {Pa} ( def. 179352)
  Autosize,                               !- Design Power Consumption {W}
  0.9,                                    !- Motor Efficiency
  0,                                      !- Fraction of Motor Inefficiencies to Fluid Stream
  0,                                      !- Coefficient 1 of the Part Load Performance Curve
  1,                                      !- Coefficient 2 of the Part Load Performance Curve
  0,                                      !- Coefficient 3 of the Part Load Performance Curve
  0,                                      !- Coefficient 4 of the Part Load Performance Curve
  0,                                      !- Design Minimum Flow Rate {m3/s}
  Intermittent,                             !- Pump Control Type
  ,                                       !- Pump Flow Rate Schedule Name
  ,                                       !- Pump Curve Name
  ,                                       !- Impeller Diameter {m}
  ,                                       !- VFD Control Type
  ,                                       !- Pump RPM Schedule Name
  ,                                       !- Minimum Pressure Schedule {Pa}
  ,                                       !- Maximum Pressure Schedule {Pa}
  ,                                       !- Minimum RPM Schedule {rev/min}
  ,                                       !- Maximum RPM Schedule {rev/min}
  ,                                       !- Zone Name
  0.5,                                    !- Skin Loss Radiative Fraction
  PowerPerFlowPerPressure,                !- Design Power Sizing Method
  348701.1,                               !- Design Electric Power per Unit Flow Rate {W/(m3/s)}
  1.282051282,                            !- Design Shaft Power per Unit Flow Rate per Unit Head {W/((m3/s)-Pa)}
  0,                                      !- Design Minimum Flow Rate Fraction
  General;                                !- End-Use Subcategory

! ===========================================================================
! IF THERE'S DHW STORAGE -> ADD TANK; IF NO DHW STORAGE -> ADD HEAT EXCHANGER
! ===========================================================================

 ! (if IS_TANK_DHW == True)

Branch,
  plantloop_dhw Supply Branch 1,          !- Name
  ,                                       !- Pressure Drop Curve Name
  WaterHeater:Mixed,                      !- Component Object Type 1
  tank_dhw,                               !- Component Name 1
  node_dhw_3,                             !- Component Inlet Node Name 1
  node_dhw_4;                             !- Component Outlet Node Name 1

WaterHeater:Mixed,
  tank_dhw,                               !- Name
  5,                                    !- Tank Volume {m3}
  setpoint_tank_dhw,                      !- Setpoint Temperature Schedule Name
  0.1,                                    !- Deadband Temperature Difference {deltaC}
  80,                                     !- Maximum Temperature Limit {C}
  Cycle,                                  !- Heater Control Type
  0,                                      !- Heater Maximum Capacity {W}
  ,                                       !- Heater Minimum Capacity {W}
  0,                                      !- Heater Ignition Minimum Flow Rate {m3/s}
  0,                                      !- Heater Ignition Delay {s}
  Electricity,                            !- Heater Fuel Type
  0.9,                                    !- Heater Thermal Efficiency
  ,                                       !- Part Load Factor Curve Name
  20,                                     !- Off Cycle Parasitic Fuel Consumption Rate {W}
  Electricity,                             !- Off Cycle Parasitic Fuel Type
  0.8,                                    !- Off Cycle Parasitic Heat Fraction to Tank
  0,                                      !- On Cycle Parasitic Fuel Consumption Rate {W}
  Electricity,                             !- On Cycle Parasitic Fuel Type
  0,                                      !- On Cycle Parasitic Heat Fraction to Tank
  Schedule,                                   !- Ambient Temperature Indicator
  tank_env_temperature,                                       !- Ambient Temperature Schedule Name
  ,                               !- Ambient Temperature Zone Name
  ,                                       !- Ambient Temperature Outdoor Air Node Name
  6,                                      !- Off Cycle Loss Coefficient to Ambient Temperature {W/K}
  1,                                      !- Off Cycle Loss Fraction to Zone
  6,                                      !- On Cycle Loss Coefficient to Ambient Temperature {W/K}
  1,                                      !- On Cycle Loss Fraction to Zone
  ,                                       !- Peak Use Flow Rate {m3/s}
  ,                                       !- Use Flow Rate Fraction Schedule Name
  ,                                       !- Cold Water Supply Temperature Schedule Name
  node_dhw_3,                             !- Use Side Inlet Node Name
  node_dhw_4,                             !- Use Side Outlet Node Name
  1,                                      !- Use Side Effectiveness
  node_hx_dhw_8,                          !- Source Side Inlet Node Name
  node_hx_dhw_9,                          !- Source Side Outlet Node Name
  1,                                      !- Source Side Effectiveness
  Autosize,                               !- Use Side Design Flow Rate {m3/s}
  Autosize,                               !- Source Side Design Flow Rate {m3/s}
  1.5,                                    !- Indirect Water Heating Recovery Time {hr} SYSTEM SENSITIVE
  StorageTank,            !- Source Side Flow Control Mode
  ,                                       !- Indirect Alternate Setpoint Temperature Schedule Name
  General;                                !- End-Use Subcategory

!Schedule:Constant,
!  setpoint_tank_dhw,                      !- Name
!  ,                                       !- Schedule Type Limits Name
!  50;                                     !- Hourly Value

Schedule:Compact,
  setpoint_tank_dhw,              !- Name
  Temperature,                          !- Schedule Type Limits Name
  Through: 12/31,                       
  For: AllDays, 
  Until:  12:00,                             !- Time preheating N {hh:mm}
  50,          !- Value Until Time N T preheating
  Until: 17:00,                          !- Time 1 {hh:mm}
  51,               !- Value Until Time 1
  Until: 24:00,                                  !- Time 3 {hh:mm}
  50;               !- Value Until Time 3

! Why commented? no need of defining sizing params if autosizing is not used as we pass the volume of the tank.
!WaterHeater:Sizing,
!  tank_dhw,                               !- WaterHeater Name
!  PeakDraw,                               !- Design Mode
!  0.538503,                               !- Time Storage Can Meet Peak Draw {hr}
!  0,                                      !- Time for Tank Recovery {hr}
!  1;                                      !- Nominal Tank Volume for Autosizing Plant Connections {m3}

PlantEquipmentList,
  plantloop_dhw Heating Equipment List,   !- Name
  WaterHeater:Mixed,                      !- Equipment Object Type 1
  tank_dhw;                               !- Equipment Name 1


! ===========================================================================
! ===========================================================================

Branch,
  plantloop_dhw Supply Outlet Branch,     !- Name
  ,                                       !- Pressure Drop Curve Name
  Pipe:Adiabatic,                         !- Component Object Type 1
  plantloop_dhw Supply Outlet Pipe,       !- Component Name 1
  plantloop_dhw Supply Outlet Pipe Node,  !- Component Inlet Node Name 1
  node_dhw_5;                             !- Component Outlet Node Name 1

Pipe:Adiabatic,
  plantloop_dhw Supply Outlet Pipe,       !- Name
  plantloop_dhw Supply Outlet Pipe Node,  !- Inlet Node Name
  node_dhw_5;                             !- Outlet Node Name

BranchList,
  plantloop_dhw Demand Branches,          !- Name
  plantloop_dhw Demand Inlet Branch,      !- Branch Name 1
  plantloop_dhw Demand Branch 1,          !- Branch Name 2
  plantloop_dhw Demand Bypass Branch,     !- Branch Name 3
  plantloop_dhw Demand Outlet Branch;     !- Branch Name 4

ConnectorList,
  plantloop_dhw Demand Connector List,    !- Name
  Connector:Splitter,                     !- Connector Object Type 1
  plantloop_dhw Demand Splitter,          !- Connector Name 1
  Connector:Mixer,                        !- Connector Object Type 2
  plantloop_dhw Demand Mixer;             !- Connector Name 2

Connector:Splitter,
  plantloop_dhw Demand Splitter,          !- Name
  plantloop_dhw Demand Inlet Branch,      !- Inlet Branch Name
  plantloop_dhw Demand Branch 1,          !- Outlet Branch Name 1
  plantloop_dhw Demand Bypass Branch;     !- Outlet Branch Name 2

Connector:Mixer,
  plantloop_dhw Demand Mixer,             !- Name
  plantloop_dhw Demand Outlet Branch,     !- Outlet Branch Name
  plantloop_dhw Demand Branch 1,          !- Inlet Branch Name 1
  plantloop_dhw Demand Bypass Branch;     !- Inlet Branch Name 2

Branch,
  plantloop_dhw Demand Inlet Branch,      !- Name
  ,                                       !- Pressure Drop Curve Name
  Pipe:Adiabatic,                         !- Component Object Type 1
  plantloop_dhw Demand Inlet Pipe,        !- Component Name 1
  node_dhw_6,                             !- Component Inlet Node Name 1
  plantloop_dhw Demand Inlet Pipe Node;   !- Component Outlet Node Name 1

Pipe:Adiabatic,
  plantloop_dhw Demand Inlet Pipe,        !- Name
  node_dhw_6,                             !- Inlet Node Name
  plantloop_dhw Demand Inlet Pipe Node;   !- Outlet Node Name

Branch,
  plantloop_dhw Demand Branch 1,          !- Name
  ,                                       !- Pressure Drop Curve Name
  WaterUse:Connections,                   !- Component Object Type 1
  dhw_connection,                         !- Component Name 1
  node_dhw_7,                             !- Component Inlet Node Name 1
  node_dhw_8;                             !- Component Outlet Node Name 1

Branch,
  plantloop_dhw Demand Bypass Branch,     !- Name
  ,                                       !- Pressure Drop Curve Name
  Pipe:Adiabatic,                         !- Component Object Type 1
  plantloop_dhw Demand Bypass Pipe,       !- Component Name 1
  plantloop_dhw Demand Bypass Pipe Inlet Node, !- Component Inlet Node Name 1
  plantloop_dhw Demand Bypass Pipe Outlet Node; !- Component Outlet Node Name 1

Pipe:Adiabatic,
  plantloop_dhw Demand Bypass Pipe,       !- Name
  plantloop_dhw Demand Bypass Pipe Inlet Node, !- Inlet Node Name
  plantloop_dhw Demand Bypass Pipe Outlet Node; !- Outlet Node Name

Branch,
  plantloop_dhw Demand Outlet Branch,     !- Name
  ,                                       !- Pressure Drop Curve Name
  Pipe:Adiabatic,                         !- Component Object Type 1
  plantloop_dhw Demand Outlet Pipe,       !- Component Name 1
  plantloop_dhw Demand Outlet Pipe Node,  !- Component Inlet Node Name 1
  node_dhw_9;                             !- Component Outlet Node Name 1

Pipe:Adiabatic,
  plantloop_dhw Demand Outlet Pipe,       !- Name
  plantloop_dhw Demand Outlet Pipe Node,  !- Inlet Node Name
  node_dhw_9;                             !- Outlet Node Name

PlantEquipmentOperationSchemes,
  plantloop_dhw Operation Schemes,        !- Name
  PlantEquipmentOperation:HeatingLoad,    !- Control Scheme Object Type 1
  plantloop_dhw Heating Operation Scheme, !- Control Scheme Name 1
  Always On Discrete;                     !- Control Scheme Schedule Name 1

PlantEquipmentOperation:HeatingLoad,
  plantloop_dhw Heating Operation Scheme, !- Name
  0,                                      !- Load Range Lower Limit 1 {W}
  1000000000,                             !- Load Range Upper Limit 1 {W}
  plantloop_dhw Heating Equipment List;   !- Range Equipment List Name 1

! ######
! HVAC - DHW COMPONENT
! ######

WaterUse:Connections,
  dhw_connection,                         !- Name
  node_dhw_7,                             !- Inlet Node Name
  node_dhw_8,                             !- Outlet Node Name
  ,                                       !- Supply Water Storage Tank Name
  ,                                       !- Reclamation Water Storage Tank Name
  setpoint_dhw_use,                       !- Hot Water Supply Temperature Schedule Name
  ,                                       !- Cold Water Supply Temperature Schedule Name
  ,                                       !- Drain Water Heat Exchanger Type
  ,                                       !- Drain Water Heat Exchanger Destination
  ,                                       !- Drain Water Heat Exchanger U-Factor Times Area {W/K}
 ! (e.g. if 4 fls TOTAL_FLOORS_LIST=[0...3])
  dhw_fl0_thz0,                 !- Water Use Equipment Name
 ! (e.g. if 4 fls TOTAL_FLOORS_LIST=[0...3])
  dhw_fl1_thz0,                 !- Water Use Equipment Name
 ! (e.g. if 4 fls TOTAL_FLOORS_LIST=[0...3])
  dhw_fl2_thz0;

Schedule:Constant,
  setpoint_dhw_use,                       !- Name
  Temperature,                                       !- Schedule Type Limits Name
  50;                                     !- Hourly Value

Schedule:Constant,
  schedule_targetTemperature,            !- Name
  Temperature,                                       !- Schedule Type Limits Name
  50;                                   !- Hourly Value

Schedule:Constant,
  schedule_sensibleFraction_dhw,            !- Name
  fractional,                                       !- Schedule Type Limits Name
  0.05;                                   !- Hourly Value

Schedule:Constant,
  schedule_latentFraction_dhw,            !- Name
  fractional,                                       !- Schedule Type Limits Name
  0.05;                                   !- Hourly Value

! ######
! FLOOR N - DHW DEMAND
! ######

 ! (e.g. if 4 fls TOTAL_FLOORS_LIST=[0...3])

WaterUse:Equipment,
  dhw_fl0_thz0,                    !- Name
  General,                                !- End-Use Subcategory
  1.388888888888889e-05,                                  !- Peak Flow Rate {m3/s} (3.0e-5 ~= 3100 kWh/dwelling/yr heating energy for DHW. Ref = 850 kWh/yr per person for DHW in Switzerland) 
  schedule_dhw_use_fl0_thz0,       !- Flow Rate Fraction Schedule Name
  schedule_targetTemperature,             !- Target Temperature Schedule Name
  ,                                       !- Hot Water Supply Temperature Schedule Name
  ,                                       !- Cold Water Supply Temperature Schedule Name
  fl0_thz0,                        !- Zone Name
  schedule_sensibleFraction_dhw,          !- Sensible Fraction Schedule Name
  schedule_latentFraction_dhw;            !- Latent Fraction Schedule Name

Schedule:Compact, ! SIA 385_2_2015
  schedule_dhw_use_fl0_thz0,      !- Name
  Fractional,                            !- Schedule Type Limits Name
  Through: 12/31,                        
  For: Weekdays,                          
  Until: 01:00,                                
  0.017,                                     
  Until: 02:00,                                 
  0.009,                      
  Until: 04:00,                                 
  0.005,                                      
  Until: 04:00,                                 
  0.003,                      
  Until: 05:00,                                 
  0.004,                      
  Until: 06:00,                                  
  0.006, ! 0.05
  Until: 07:00,                                
  0.033, ! 0.2                                    
  Until: 08:00,                                 
  0.062, ! 0.15                     
  Until: 09:00,                                 
  0.084,  ! 0.1                                    
  Until: 10:00,                                 
  0.058,                      
  Until: 11:00,                                 
  0.05,                      
  Until: 12:00,                                  
  0.05,                                            
  Until: 13:00,                                
  0.058,                    
  Until: 14:00,                                  
  0.06,
  Until: 15:00,                                 
  0.047,                                      
  Until: 16:00,                                 
  0.041,                      
  Until: 17:00,                                 
  0.038,                      
  Until: 18:00,                                  
  0.045,                                            
  Until: 19:00,                                
  0.056, ! 0.05                   
  Until: 20:00,                                  
  0.066,  ! 0.2                                      
  Until: 21:00,                                 
  0.064,  ! 0.2
  Until: 22:00,                                 
  0.061, ! 0.05                      
  Until: 23:00,                                  
  0.05,                                                             
  Until: 24:00,                                 
  0.034,
  For: AllOtherDays,                          
  Until: 01:00,                                
  0.019,                                     
  Until: 02:00,                                 
  0.012,                      
  Until: 04:00,                                 
  0.007,                                      
  Until: 04:00,                                 
  0.004,                      
  Until: 05:00,                                 
  0.002,                      
  Until: 06:00,                                  
  0.004, ! 0.05
  Until: 07:00,                                
  0.003, ! 0.2                                    
  Until: 08:00,                                 
  0.009, ! 0.15                     
  Until: 09:00,                                 
  0.028,  ! 0.1                                    
  Until: 10:00,                                 
  0.054,                      
  Until: 11:00,                                 
  0.09,                      
  Until: 12:00,                                  
  0.087,                                            
  Until: 13:00,                                
  0.077,                    
  Until: 14:00,                                  
  0.075,
  Until: 15:00,                                 
  0.06,                                      
  Until: 16:00,                                 
  0.053,                      
  Until: 17:00,                                 
  0.055,                      
  Until: 18:00,                                  
  0.053,                                            
  Until: 19:00,                                
  0.061, ! 0.05                   
  Until: 20:00,                                  
  0.062,  ! 0.2                                      
  Until: 21:00,                                 
  0.071,  ! 0.2
  Until: 22:00,                                 
  0.05, ! 0.05                      
  Until: 23:00,                                  
  0.034,                                                             
  Until: 24:00,                                 
  0.027;                                       

 ! (e.g. if 4 fls TOTAL_FLOORS_LIST=[0...3])

WaterUse:Equipment,
  dhw_fl1_thz0,                    !- Name
  General,                                !- End-Use Subcategory
  1.388888888888889e-05,                                  !- Peak Flow Rate {m3/s} (3.0e-5 ~= 3100 kWh/dwelling/yr heating energy for DHW. Ref = 850 kWh/yr per person for DHW in Switzerland) 
  schedule_dhw_use_fl1_thz0,       !- Flow Rate Fraction Schedule Name
  schedule_targetTemperature,             !- Target Temperature Schedule Name
  ,                                       !- Hot Water Supply Temperature Schedule Name
  ,                                       !- Cold Water Supply Temperature Schedule Name
  fl1_thz0,                        !- Zone Name
  schedule_sensibleFraction_dhw,          !- Sensible Fraction Schedule Name
  schedule_latentFraction_dhw;            !- Latent Fraction Schedule Name

Schedule:Compact, ! SIA 385_2_2015
  schedule_dhw_use_fl1_thz0,      !- Name
  Fractional,                            !- Schedule Type Limits Name
  Through: 12/31,                        
  For: Weekdays,                          
  Until: 01:00,                                
  0.017,                                     
  Until: 02:00,                                 
  0.009,                      
  Until: 04:00,                                 
  0.005,                                      
  Until: 04:00,                                 
  0.003,                      
  Until: 05:00,                                 
  0.004,                      
  Until: 06:00,                                  
  0.006, ! 0.05
  Until: 07:00,                                
  0.033, ! 0.2                                    
  Until: 08:00,                                 
  0.062, ! 0.15                     
  Until: 09:00,                                 
  0.084,  ! 0.1                                    
  Until: 10:00,                                 
  0.058,                      
  Until: 11:00,                                 
  0.05,                      
  Until: 12:00,                                  
  0.05,                                            
  Until: 13:00,                                
  0.058,                    
  Until: 14:00,                                  
  0.06,
  Until: 15:00,                                 
  0.047,                                      
  Until: 16:00,                                 
  0.041,                      
  Until: 17:00,                                 
  0.038,                      
  Until: 18:00,                                  
  0.045,                                            
  Until: 19:00,                                
  0.056, ! 0.05                   
  Until: 20:00,                                  
  0.066,  ! 0.2                                      
  Until: 21:00,                                 
  0.064,  ! 0.2
  Until: 22:00,                                 
  0.061, ! 0.05                      
  Until: 23:00,                                  
  0.05,                                                             
  Until: 24:00,                                 
  0.034,
  For: AllOtherDays,                          
  Until: 01:00,                                
  0.019,                                     
  Until: 02:00,                                 
  0.012,                      
  Until: 04:00,                                 
  0.007,                                      
  Until: 04:00,                                 
  0.004,                      
  Until: 05:00,                                 
  0.002,                      
  Until: 06:00,                                  
  0.004, ! 0.05
  Until: 07:00,                                
  0.003, ! 0.2                                    
  Until: 08:00,                                 
  0.009, ! 0.15                     
  Until: 09:00,                                 
  0.028,  ! 0.1                                    
  Until: 10:00,                                 
  0.054,                      
  Until: 11:00,                                 
  0.09,                      
  Until: 12:00,                                  
  0.087,                                            
  Until: 13:00,                                
  0.077,                    
  Until: 14:00,                                  
  0.075,
  Until: 15:00,                                 
  0.06,                                      
  Until: 16:00,                                 
  0.053,                      
  Until: 17:00,                                 
  0.055,                      
  Until: 18:00,                                  
  0.053,                                            
  Until: 19:00,                                
  0.061, ! 0.05                   
  Until: 20:00,                                  
  0.062,  ! 0.2                                      
  Until: 21:00,                                 
  0.071,  ! 0.2
  Until: 22:00,                                 
  0.05, ! 0.05                      
  Until: 23:00,                                  
  0.034,                                                             
  Until: 24:00,                                 
  0.027;                                       

 ! (e.g. if 4 fls TOTAL_FLOORS_LIST=[0...3])

WaterUse:Equipment,
  dhw_fl2_thz0,                    !- Name
  General,                                !- End-Use Subcategory
  1.388888888888889e-05,                                  !- Peak Flow Rate {m3/s} (3.0e-5 ~= 3100 kWh/dwelling/yr heating energy for DHW. Ref = 850 kWh/yr per person for DHW in Switzerland) 
  schedule_dhw_use_fl2_thz0,       !- Flow Rate Fraction Schedule Name
  schedule_targetTemperature,             !- Target Temperature Schedule Name
  ,                                       !- Hot Water Supply Temperature Schedule Name
  ,                                       !- Cold Water Supply Temperature Schedule Name
  fl2_thz0,                        !- Zone Name
  schedule_sensibleFraction_dhw,          !- Sensible Fraction Schedule Name
  schedule_latentFraction_dhw;            !- Latent Fraction Schedule Name

Schedule:Compact, ! SIA 385_2_2015
  schedule_dhw_use_fl2_thz0,      !- Name
  Fractional,                            !- Schedule Type Limits Name
  Through: 12/31,                        
  For: Weekdays,                          
  Until: 01:00,                                
  0.017,                                     
  Until: 02:00,                                 
  0.009,                      
  Until: 04:00,                                 
  0.005,                                      
  Until: 04:00,                                 
  0.003,                      
  Until: 05:00,                                 
  0.004,                      
  Until: 06:00,                                  
  0.006, ! 0.05
  Until: 07:00,                                
  0.033, ! 0.2                                    
  Until: 08:00,                                 
  0.062, ! 0.15                     
  Until: 09:00,                                 
  0.084,  ! 0.1                                    
  Until: 10:00,                                 
  0.058,                      
  Until: 11:00,                                 
  0.05,                      
  Until: 12:00,                                  
  0.05,                                            
  Until: 13:00,                                
  0.058,                    
  Until: 14:00,                                  
  0.06,
  Until: 15:00,                                 
  0.047,                                      
  Until: 16:00,                                 
  0.041,                      
  Until: 17:00,                                 
  0.038,                      
  Until: 18:00,                                  
  0.045,                                            
  Until: 19:00,                                
  0.056, ! 0.05                   
  Until: 20:00,                                  
  0.066,  ! 0.2                                      
  Until: 21:00,                                 
  0.064,  ! 0.2
  Until: 22:00,                                 
  0.061, ! 0.05                      
  Until: 23:00,                                  
  0.05,                                                             
  Until: 24:00,                                 
  0.034,
  For: AllOtherDays,                          
  Until: 01:00,                                
  0.019,                                     
  Until: 02:00,                                 
  0.012,                      
  Until: 04:00,                                 
  0.007,                                      
  Until: 04:00,                                 
  0.004,                      
  Until: 05:00,                                 
  0.002,                      
  Until: 06:00,                                  
  0.004, ! 0.05
  Until: 07:00,                                
  0.003, ! 0.2                                    
  Until: 08:00,                                 
  0.009, ! 0.15                     
  Until: 09:00,                                 
  0.028,  ! 0.1                                    
  Until: 10:00,                                 
  0.054,                      
  Until: 11:00,                                 
  0.09,                      
  Until: 12:00,                                  
  0.087,                                            
  Until: 13:00,                                
  0.077,                    
  Until: 14:00,                                  
  0.075,
  Until: 15:00,                                 
  0.06,                                      
  Until: 16:00,                                 
  0.053,                      
  Until: 17:00,                                 
  0.055,                      
  Until: 18:00,                                  
  0.053,                                            
  Until: 19:00,                                
  0.061, ! 0.05                   
  Until: 20:00,                                  
  0.062,  ! 0.2                                      
  Until: 21:00,                                 
  0.071,  ! 0.2
  Until: 22:00,                                 
  0.05, ! 0.05                      
  Until: 23:00,                                  
  0.034,                                                             
  Until: 24:00,                                 
  0.027;                                       



! ###################################################################################
! ###################################################################################
! ###################################################################################

! ######
! HVAC - HEAT EXCHANGER TO SH TANK
! ######

PlantLoop,
  plantloop_hx_sh,                        !- Name
  Water,                                  !- Fluid Type
  ,                                       !- User Defined Fluid Type
  plantloop_hx_sh Operation Schemes,      !- Plant Equipment Operation Scheme Name
  node_hx_sh_5,                           !- Loop Temperature Setpoint Node Name
  100,                                    !- Maximum Loop Temperature {C}
  0,                                      !- Minimum Loop Temperature {C}
  Autosize,                               !- Maximum Loop Flow Rate {m3/s}
  0,                                      !- Minimum Loop Flow Rate {m3/s}
  Autocalculate,                          !- Plant Loop Volume {m3}
  node_hx_sh_1,                           !- Plant Side Inlet Node Name
  node_hx_sh_5,                           !- Plant Side Outlet Node Name
  plantloop_hx_sh Supply Branches,        !- Plant Side Branch List Name
  plantloop_hx_sh Supply Connector List,  !- Plant Side Connector List Name
  node_hx_sh_6,                           !- Demand Side Inlet Node Name
  node_hx_sh_9,                           !- Demand Side Outlet Node Name
  plantloop_hx_sh Demand Branches,        !- Demand Side Branch List Name
  plantloop_hx_sh Demand Connector List,  !- Demand Side Connector List Name
  SequentialLoad,                                !- Load Distribution Scheme
  plantloop_hx_sh_avm_list,                                       !- Availability Manager List Name
  SingleSetpoint,                         !- Plant Loop Demand Calculation Scheme
  None;                                   !- Common Pipe Simulation

AvailabilityManagerAssignmentList,
  plantloop_hx_sh_avm_list,        !- Name
  AvailabilityManager:Scheduled,   !- Availability Manager 1 Object Type
  plantloop_hx_sh_avail_manager;   !- Availability Manager 1 Name

AvailabilityManager:Scheduled,
  plantloop_hx_sh_avail_manager,   !- Name
  schedule_summer_off;     !- Schedule Name

Schedule:Compact,
  schedule_summer_off,  !- Name
  On/Off,                       !- Schedule Type Limits Name
  Through: 05/14,  For: AllDays, Until: 24:00, 1,   ! before May 15 -> ON
  Through: 09/30,  For: AllDays, Until: 24:00, 0,   ! May 15–Sep 30 -> OFF
  Through: 12/31,  For: AllDays, Until: 24:00, 1;   ! Oct 1–Dec 31 -> ON

Sizing:Plant,
  plantloop_hx_sh,                        !- Plant or Condenser Loop Name
  Heating,                                !- Loop Type
  58,                                     !- Design Loop Exit Temperature {C}
  2,                                      !- Loop Design Temperature Difference {deltaC}
  NonCoincident,                          !- Sizing Option
  1,                                      !- Zone Timesteps in Averaging Window
  None;                                   !- Coincident Sizing Factor Mode


SetpointManager:Scheduled,
  setpoint_loop_hx_sh,                    !- Name
  Temperature,                            !- Control Variable
  schedule_setpoint_loop_hx_sh,           !- Schedule Name
  node_hx_sh_5;                           !- Setpoint Node or NodeList Name

Schedule:Constant,
  schedule_setpoint_loop_hx_sh,           !- Name
  ,                                       !- Schedule Type Limits Name
  37.5;                                     !- Hourly Value

!Schedule:Compact,
!  schedule_setpoint_loop_hx_sh,              !- Name
!  Temperature,                          !- Schedule Type Limits Name
!  Through: 12/31,                       
!  For: AllDays, 
!  Until: 12:00,                             !- Time preheating N {hh:mm}
!  37.5,          !- Value Until Time N T preheating
!  Until: 17:00,                          !- Time 1 {hh:mm}
!  38.5,               !- Value Until Time 1
!  Until: 24:00,                                  !- Time 3 {hh:mm}
!  37.5;               !- Value Until Time 3



BranchList,
  plantloop_hx_sh Supply Branches,        !- Name
  plantloop_hx_sh Supply Inlet Branch,    !- Branch Name 1
  plantloop_hx_sh Supply Branch 1,        !- Branch Name 2
  plantloop_hx_sh Supply Outlet Branch;   !- Branch Name 3

ConnectorList,
  plantloop_hx_sh Supply Connector List,  !- Name
  Connector:Splitter,                     !- Connector Object Type 1
  plantloop_hx_sh Supply Splitter,        !- Connector Name 1
  Connector:Mixer,                        !- Connector Object Type 2
  plantloop_hx_sh Supply Mixer;           !- Connector Name 2

Connector:Splitter,
  plantloop_hx_sh Supply Splitter,        !- Name
  plantloop_hx_sh Supply Inlet Branch,    !- Inlet Branch Name
  plantloop_hx_sh Supply Branch 1;        !- Outlet Branch Name 1

Connector:Mixer,
  plantloop_hx_sh Supply Mixer,           !- Name
  plantloop_hx_sh Supply Outlet Branch,   !- Outlet Branch Name
  plantloop_hx_sh Supply Branch 1;        !- Inlet Branch Name 1

Branch,
  plantloop_hx_sh Supply Inlet Branch,    !- Name
  ,                                       !- Pressure Drop Curve Name
  Pump:VariableSpeed,                     !- Component Object Type 1
  pump_hx_sh,                             !- Component Name 1
  node_hx_sh_1,                           !- Component Inlet Node Name 1
  node_hx_sh_2;                           !- Component Outlet Node Name 1

Pump:VariableSpeed,
  pump_hx_sh,                             !- Name
  node_hx_sh_1,                           !- Inlet Node Name
  node_hx_sh_2,                           !- Outlet Node Name
  Autosize,                               !- Design Maximum Flow Rate {m3/s}
  20000,                                 !- Design Pump Head {Pa} ( def. 179352) (def. 30000)
  Autosize,                               !- Design Power Consumption {W}
  0.9,                                    !- Motor Efficiency
  0,                                      !- Fraction of Motor Inefficiencies to Fluid Stream
  0,                                      !- Coefficient 1 of the Part Load Performance Curve
  1,                                      !- Coefficient 2 of the Part Load Performance Curve
  0,                                      !- Coefficient 3 of the Part Load Performance Curve
  0,                                      !- Coefficient 4 of the Part Load Performance Curve
  0,                                      !- Design Minimum Flow Rate {m3/s}
  Intermittent,                             !- Pump Control Type
  ,                                       !- Pump Flow Rate Schedule Name
  ,                                       !- Pump Curve Name
  ,                                       !- Impeller Diameter {m}
  ,                                       !- VFD Control Type
  ,                                       !- Pump RPM Schedule Name
  ,                                       !- Minimum Pressure Schedule {Pa}
  ,                                       !- Maximum Pressure Schedule {Pa}
  ,                                       !- Minimum RPM Schedule {rev/min}
  ,                                       !- Maximum RPM Schedule {rev/min}
  ,                                       !- Zone Name
  1,                                    !- Skin Loss Radiative Fraction
  PowerPerFlowPerPressure,                !- Design Power Sizing Method
  348701.1,                               !- Design Electric Power per Unit Flow Rate {W/(m3/s)}
  1.282051282,                            !- Design Shaft Power per Unit Flow Rate per Unit Head {W/((m3/s)-Pa)}
  0,                                      !- Design Minimum Flow Rate Fraction
  General;                                !- End-Use Subcategory

Branch,
  plantloop_hx_sh Supply Branch 1,        !- Name
  ,                                       !- Pressure Drop Curve Name
  HeatExchanger:FluidToFluid,             !- Component Object Type 1
  hx_sh,                                  !- Component Name 1
  node_hx_sh_3,                           !- Component Inlet Node Name 1
  node_hx_sh_4;                           !- Component Outlet Node Name 1

Branch,
  plantloop_hx_sh Supply Outlet Branch,   !- Name
  ,                                       !- Pressure Drop Curve Name
  Pipe:Adiabatic,                         !- Component Object Type 1
  plantloop_hx_sh Supply Outlet Pipe,     !- Component Name 1
  plantloop_hx_sh Supply Outlet Pipe Node, !- Component Inlet Node Name 1
  node_hx_sh_5;                           !- Component Outlet Node Name 1

Pipe:Adiabatic,
  plantloop_hx_sh Supply Outlet Pipe,     !- Name
  plantloop_hx_sh Supply Outlet Pipe Node, !- Inlet Node Name
  node_hx_sh_5;                           !- Outlet Node Name

BranchList,
  plantloop_hx_sh Demand Branches,        !- Name
  plantloop_hx_sh Demand Inlet Branch,    !- Branch Name 1
  plantloop_hx_sh Demand Branch 1,        !- Branch Name 2
  plantloop_hx_sh Demand Bypass Branch,   !- Branch Name 3
  plantloop_hx_sh Demand Outlet Branch;   !- Branch Name 4

ConnectorList,
  plantloop_hx_sh Demand Connector List,  !- Name
  Connector:Splitter,                     !- Connector Object Type 1
  plantloop_hx_sh Demand Splitter,        !- Connector Name 1
  Connector:Mixer,                        !- Connector Object Type 2
  plantloop_hx_sh Demand Mixer;           !- Connector Name 2

Connector:Splitter,
  plantloop_hx_sh Demand Splitter,        !- Name
  plantloop_hx_sh Demand Inlet Branch,    !- Inlet Branch Name
  plantloop_hx_sh Demand Branch 1,        !- Outlet Branch Name 1
  plantloop_hx_sh Demand Bypass Branch;   !- Outlet Branch Name 2

Connector:Mixer,
  plantloop_hx_sh Demand Mixer,           !- Name
  plantloop_hx_sh Demand Outlet Branch,   !- Outlet Branch Name
  plantloop_hx_sh Demand Branch 1,        !- Inlet Branch Name 1
  plantloop_hx_sh Demand Bypass Branch;   !- Inlet Branch Name 2

Branch,
  plantloop_hx_sh Demand Inlet Branch,    !- Name
  ,                                       !- Pressure Drop Curve Name
  Pipe:Adiabatic,                         !- Component Object Type 1
  plantloop_hx_sh Demand Inlet Pipe,      !- Component Name 1
  node_hx_sh_6,                           !- Component Inlet Node Name 1
  plantloop_hx_sh Demand Inlet Pipe Node; !- Component Outlet Node Name 1

Pipe:Adiabatic,
  plantloop_hx_sh Demand Inlet Pipe,      !- Name
  node_hx_sh_6,                           !- Inlet Node Name
  plantloop_hx_sh Demand Inlet Pipe Node; !- Outlet Node Name

! ===========================================================================
! IF THERE'S SH STORAGE -> ADD TANK; IF NO SH STORAGE -> ADD HEAT EXCHANGER
! ===========================================================================

 ! (if IS_TANK_SH == True)

Branch,
  plantloop_hx_sh Demand Branch 1,        !- Name
  ,                                       !- Pressure Drop Curve Name
  WaterHeater:Mixed,                      !- Component Object Type 1
  tank_sh,                                !- Component Name 1
  node_hx_sh_7,                           !- Component Inlet Node Name 1
  node_hx_sh_8;                           !- Component Outlet Node Name 1


! ===========================================================================
! ===========================================================================

Schedule:Compact,
  tank_env_temperature,      !- Name
  Temperature,                            !- Schedule Type Limits Name
  Through: 12/31,                         !- Field 1
  For: AllDays,                           !- Field 2
  Until: 24:00,                           !- Field 3
  18;                                     !- Field 4

Branch,
  plantloop_hx_sh Demand Bypass Branch,   !- Name
  ,                                       !- Pressure Drop Curve Name
  Pipe:Adiabatic,                         !- Component Object Type 1
  plantloop_hx_sh Demand Bypass Pipe,     !- Component Name 1
  plantloop_hx_sh Demand Bypass Pipe Inlet Node, !- Component Inlet Node Name 1
  plantloop_hx_sh Demand Bypass Pipe Outlet Node; !- Component Outlet Node Name 1

Pipe:Adiabatic,
  plantloop_hx_sh Demand Bypass Pipe,     !- Name
  plantloop_hx_sh Demand Bypass Pipe Inlet Node, !- Inlet Node Name
  plantloop_hx_sh Demand Bypass Pipe Outlet Node; !- Outlet Node Name

Branch,
  plantloop_hx_sh Demand Outlet Branch,   !- Name
  ,                                       !- Pressure Drop Curve Name
  Pipe:Adiabatic,                         !- Component Object Type 1
  plantloop_hx_sh Demand Outlet Pipe,     !- Component Name 1
  plantloop_hx_sh Demand Outlet Pipe Node, !- Component Inlet Node Name 1
  node_hx_sh_9;                           !- Component Outlet Node Name 1

Pipe:Adiabatic,
  plantloop_hx_sh Demand Outlet Pipe,     !- Name
  plantloop_hx_sh Demand Outlet Pipe Node, !- Inlet Node Name
  node_hx_sh_9;                           !- Outlet Node Name

PlantEquipmentOperationSchemes,
  plantloop_hx_sh Operation Schemes,      !- Name
  PlantEquipmentOperation:HeatingLoad,    !- Control Scheme Object Type 1
  plantloop_hx_sh Heating Operation Scheme, !- Control Scheme Name 1
  Always On Discrete;                     !- Control Scheme Schedule Name 1

PlantEquipmentOperation:HeatingLoad,
  plantloop_hx_sh Heating Operation Scheme, !- Name
  0,                                      !- Load Range Lower Limit 1 {W}
  1000000000,                             !- Load Range Upper Limit 1 {W}
  plantloop_hx_sh Heating Equipment List; !- Range Equipment List Name 1

PlantEquipmentList,
  plantloop_hx_sh Heating Equipment List, !- Name
  HeatExchanger:FluidToFluid,             !- Equipment Object Type 1
  hx_sh;                                  !- Equipment Name 1


! ###################################################################################
! ###################################################################################
! ###################################################################################

! ######
! HVAC - SH TANK TO EMITTERS
! ######

PlantLoop,
  plantloop_sh,                           !- Name
  Water,                                  !- Fluid Type
  ,                                       !- User Defined Fluid Type
  plantloop_sh Operation Schemes,         !- Plant Equipment Operation Scheme Name
  node_sh_5,                              !- Loop Temperature Setpoint Node Name
  100,                                    !- Maximum Loop Temperature {C}
  0,                                      !- Minimum Loop Temperature {C}
  Autosize,                               !- Maximum Loop Flow Rate {m3/s}
  0,                                      !- Minimum Loop Flow Rate {m3/s}
  Autocalculate,                          !- Plant Loop Volume {m3}
  node_sh_1,                              !- Plant Side Inlet Node Name
  node_sh_5,                              !- Plant Side Outlet Node Name
  plantloop_sh Supply Branches,           !- Plant Side Branch List Name
  plantloop_sh Supply Connector List,     !- Plant Side Connector List Name
  node_sh_6,                              !- Demand Side Inlet Node Name
  node_sh_9,                              !- Demand Side Outlet Node Name
  plantloop_sh Demand Branches,           !- Demand Side Branch List Name
  plantloop_sh Demand Connector List,     !- Demand Side Connector List Name
  SequentialLoad,                         !- Load Distribution Scheme
  plantloop_sh_avm_list,                  !- Availability Manager List Name
  SingleSetpoint,                         !- Plant Loop Demand Calculation Scheme
  None;                                   !- Common Pipe Simulation

AvailabilityManagerAssignmentList,
  plantloop_sh_avm_list,        !- Name
  AvailabilityManager:Scheduled,   !- Availability Manager 1 Object Type
  plantloop_sh_avail_manager;   !- Availability Manager 1 Name

AvailabilityManager:Scheduled,
  plantloop_sh_avail_manager,   !- Name
  schedule_summer_off;     !- Schedule Name

Sizing:Plant,
  plantloop_sh,                           !- Plant or Condenser Loop Name
  Heating,                                !- Loop Type
  58,                                     !- Design Loop Exit Temperature {C}
  2,                                      !- Loop Design Temperature Difference {deltaC}
  NonCoincident,                          !- Sizing Option
  1,                                      !- Zone Timesteps in Averaging Window
  None;                                   !- Coincident Sizing Factor Mode

SetpointManager:Scheduled,
  setpoint_loop_sh,                       !- Name
  Temperature,                            !- Control Variable
  schedule_setpoint_loop_sh,              !- Schedule Name
  node_sh_5;                              !- Setpoint Node or NodeList Name

Schedule:Constant,
  schedule_setpoint_loop_sh,              !- Name
  ,                                       !- Schedule Type Limits Name
  37.5;                                     !- Hourly Value

Schedule:Compact,
  schedule_availability_emitter, !- Name
  Fractional,                               !- Schedule Type Limits Name
  Through: 5/15,                          
  For: AllDays,                           
  Until: 24:00,                           
  1,                                      
  Through: 9/30,                          
  For: AllDays,                           
  Until: 24:00,                           
  0,                                      
  Through: 12/31,                         
  For: AllDays,                           
  Until: 24:00,                           
  1;   

! ===========================================================================
! IF THERE'S SH STORAGE -> ADD TANK; IF NO SH STORAGE -> ADD HEAT EXCHANGER
! ===========================================================================

 ! (if IS_TANK_SH == True)

Branch,
  plantloop_sh Supply Branch 1,           !- Name
  ,                                       !- Pressure Drop Curve Name
  WaterHeater:Mixed,                      !- Component Object Type 1
  tank_sh,                                !- Component Name 1
  node_sh_3,                              !- Component Inlet Node Name 1
  node_sh_4;                              !- Component Outlet Node Name 1

PlantEquipmentList,
  plantloop_sh Heating Equipment List,    !- Name
  WaterHeater:Mixed,                      !- Equipment Object Type 1
  tank_sh;                                !- Equipment Name 1

WaterHeater:Mixed,
  tank_sh,                                !- Name
  369,                                      !- Tank Volume {m3}
  setpoint_tank_sh,                       !- Setpoint Temperature Schedule Name
  0.01,                                    !- Deadband Temperature Difference {deltaC}
  82.22,                                  !- Maximum Temperature Limit {C}
  Cycle,                                  !- Heater Control Type
  0,                                      !- Heater Maximum Capacity {W}
  ,                                       !- Heater Minimum Capacity {W}
  0,                                      !- Heater Ignition Minimum Flow Rate {m3/s}
  0,                                      !- Heater Ignition Delay {s}
  NaturalGas,                             !- Heater Fuel Type
  0.8,                                    !- Heater Thermal Efficiency
  ,                                       !- Part Load Factor Curve Name
  20,                                     !- Off Cycle Parasitic Fuel Consumption Rate {W}
  NaturalGas,                             !- Off Cycle Parasitic Fuel Type
  0.8,                                    !- Off Cycle Parasitic Heat Fraction to Tank
  0,                                      !- On Cycle Parasitic Fuel Consumption Rate {W}
  NaturalGas,                             !- On Cycle Parasitic Fuel Type
  0,                                      !- On Cycle Parasitic Heat Fraction to Tank
  Schedule,                                   !- Ambient Temperature Indicator
  tank_env_temperature,                                       !- Ambient Temperature Schedule Name
  ,                               !- Ambient Temperature Zone Name
  ,                                       !- Ambient Temperature Outdoor Air Node Name
  6,                                      !- Off Cycle Loss Coefficient to Ambient Temperature {W/K}
  1,                                      !- Off Cycle Loss Fraction to Zone
  6,                                      !- On Cycle Loss Coefficient to Ambient Temperature {W/K}
  1,                                      !- On Cycle Loss Fraction to Zone
  ,                                       !- Peak Use Flow Rate {m3/s}
  ,                                       !- Use Flow Rate Fraction Schedule Name
  ,                                       !- Cold Water Supply Temperature Schedule Name
  node_sh_3,                              !- Use Side Inlet Node Name
  node_sh_4,                              !- Use Side Outlet Node Name
  1,                                      !- Use Side Effectiveness
  node_hx_sh_7,                           !- Source Side Inlet Node Name
  node_hx_sh_8,                           !- Source Side Outlet Node Name
  1,                                      !- Source Side Effectiveness
  Autosize,                               !- Use Side Design Flow Rate {m3/s}
  Autosize,                               !- Source Side Design Flow Rate {m3/s}
  0.1,                                    !- Indirect Water Heating Recovery Time {hr} SYSTEM SENSITIVE
  StorageTank,            !- Source Side Flow Control Mode
  ,                                       !- Indirect Alternate Setpoint Temperature Schedule Name
  General;                                !- End-Use Subcategory

!Schedule:Compact,
!  setpoint_tank_sh,      !- Name
!  Temperature,                            !- Schedule Type Limits Name
!  Through: 5/15,                         !- Field 1
!  For: AllDays,                           !- Field 2
!  Until: 24:00,                           !- Field 3
!  37.5,
!  Through: 9/30,
!  For: AllDays,                           !- Field 2
!  Until: 24:00,                           !- Field 3
!  10,
!  Through: 12/31,
!  For: AllDays,                           !- Field 2
!  Until: 24:00,                           !- Field 3
!  37.5;


Schedule:Compact,
  setpoint_tank_sh,              !- Name
  Temperature,                          !- Schedule Type Limits Name
  Through: 5/15,                       
  For: AllDays, 
  Until: 12:00,                             !- Time preheating N {hh:mm}
  37.5,          !- Value Until Time N T preheating
  Until: 17:00,                          !- Time 1 {hh:mm}
  38.5,               !- Value Until Time 1
  Until: 24:00,                                  !- Time 3 {hh:mm}
  37.5,               !- Value Until Time 3
  Through: 9/30,
  For: AllDays,                           !- Field 2
  Until: 24:00,                           !- Field 3
  10,
  Through: 12/31,
  For: AllDays,
  Until: 12:00,                             !- Time preheating N {hh:mm}
  37.5,          !- Value Until Time N T preheating
  Until: 17:00,                          !- Time 1 {hh:mm}
  38.5,               !- Value Until Time 1
  Until: 24:00,                                  !- Time 3 {hh:mm}
  37.5;               !- Value Until Time 3

!WaterHeater:Sizing,
!  tank_sh,                                !- WaterHeater Name
!  PeakDraw,                               !- Design Mode
!  0.538503,                               !- Time Storage Can Meet Peak Draw {hr}
!  0,                                      !- Time for Tank Recovery {hr}
!  1;                                      !- Nominal Tank Volume for Autosizing Plant Connections {m3}


! ===========================================================================
! ===========================================================================

BranchList,
  plantloop_sh Supply Branches,           !- Name
  plantloop_sh Supply Inlet Branch,       !- Branch Name 1
  plantloop_sh Supply Branch 1,           !- Branch Name 2
  plantloop_sh Supply Outlet Branch;      !- Branch Name 3

ConnectorList,
  plantloop_sh Supply Connector List,     !- Name
  Connector:Splitter,                     !- Connector Object Type 1
  plantloop_sh Supply Splitter,           !- Connector Name 1
  Connector:Mixer,                        !- Connector Object Type 2
  plantloop_sh Supply Mixer;              !- Connector Name 2

Connector:Splitter,
  plantloop_sh Supply Splitter,           !- Name
  plantloop_sh Supply Inlet Branch,       !- Inlet Branch Name
  plantloop_sh Supply Branch 1;           !- Outlet Branch Name 1

Connector:Mixer,
  plantloop_sh Supply Mixer,              !- Name
  plantloop_sh Supply Outlet Branch,      !- Outlet Branch Name
  plantloop_sh Supply Branch 1;           !- Inlet Branch Name 1

Branch,
  plantloop_sh Supply Inlet Branch,       !- Name
  ,                                       !- Pressure Drop Curve Name
  Pump:VariableSpeed,                     !- Component Object Type 1
  pump_sh,                                !- Component Name 1
  node_sh_1,                              !- Component Inlet Node Name 1
  node_sh_2;                              !- Component Outlet Node Name 1

Pump:VariableSpeed,
  pump_sh,                                !- Name
  node_sh_1,                              !- Inlet Node Name
  node_sh_2,                              !- Outlet Node Name
  Autosize,                               !- Design Maximum Flow Rate {m3/s}
  20000,                                 !- Design Pump Head {Pa} ( def. 179352)
  Autosize,                               !- Design Power Consumption {W}
  0.9,                                    !- Motor Efficiency
  0,                                      !- Fraction of Motor Inefficiencies to Fluid Stream
  0,                                      !- Coefficient 1 of the Part Load Performance Curve
  1,                                      !- Coefficient 2 of the Part Load Performance Curve
  0,                                      !- Coefficient 3 of the Part Load Performance Curve
  0,                                      !- Coefficient 4 of the Part Load Performance Curve
  0,                                      !- Design Minimum Flow Rate {m3/s}
  Intermittent,                             !- Pump Control Type
  ,                                       !- Pump Flow Rate Schedule Name
  ,                                       !- Pump Curve Name
  ,                                       !- Impeller Diameter {m}
  ,                                       !- VFD Control Type
  ,                                       !- Pump RPM Schedule Name
  ,                                       !- Minimum Pressure Schedule {Pa}
  ,                                       !- Maximum Pressure Schedule {Pa}
  ,                                       !- Minimum RPM Schedule {rev/min}
  ,                                       !- Maximum RPM Schedule {rev/min}
  ,                                       !- Zone Name
  0.5,                                    !- Skin Loss Radiative Fraction
  PowerPerFlowPerPressure,                !- Design Power Sizing Method
  348701.1,                               !- Design Electric Power per Unit Flow Rate {W/(m3/s)}
  1.282051282,                            !- Design Shaft Power per Unit Flow Rate per Unit Head {W/((m3/s)-Pa)}
  0,                                      !- Design Minimum Flow Rate Fraction
  General;                                !- End-Use Subcategory

Branch,
  plantloop_sh Supply Outlet Branch,      !- Name
  ,                                       !- Pressure Drop Curve Name
  Pipe:Adiabatic,                         !- Component Object Type 1
  plantloop_sh Supply Outlet Pipe,        !- Component Name 1
  plantloop_sh Supply Outlet Pipe Node,   !- Component Inlet Node Name 1
  node_sh_5;                              !- Component Outlet Node Name 1

Pipe:Adiabatic,
  plantloop_sh Supply Outlet Pipe,        !- Name
  plantloop_sh Supply Outlet Pipe Node,   !- Inlet Node Name
  node_sh_5;                              !- Outlet Node Name

BranchList,
  plantloop_sh Demand Branches,           !- Name
  plantloop_sh Demand Inlet Branch,       !- Branch Name 1
  plantloop_sh Demand Branch 0,           !- Branch Name 2
  plantloop_sh Demand Branch 1,           !- Branch Name 2
  plantloop_sh Demand Branch 2,           !- Branch Name 2
  plantloop_sh Demand Bypass Branch,      !- Branch Name 5
  plantloop_sh Demand Outlet Branch;      !- Branch Name 6

ConnectorList,
  plantloop_sh Demand Connector List,     !- Name
  Connector:Splitter,                     !- Connector Object Type 1
  plantloop_sh Demand Splitter,           !- Connector Name 1
  Connector:Mixer,                        !- Connector Object Type 2
  plantloop_sh Demand Mixer;              !- Connector Name 2

Connector:Splitter,
  plantloop_sh Demand Splitter,           !- Name
  plantloop_sh Demand Inlet Branch,       !- Inlet Branch Name
  plantloop_sh Demand Branch 0,           !- Branch Name 2
  plantloop_sh Demand Branch 1,           !- Branch Name 2
  plantloop_sh Demand Branch 2,           !- Branch Name 2
  plantloop_sh Demand Bypass Branch;      !- Outlet Branch Name 4

Connector:Mixer,
  plantloop_sh Demand Mixer,              !- Name
  plantloop_sh Demand Outlet Branch,      !- Outlet Branch Name
  plantloop_sh Demand Branch 0,           !- Branch Name 2
  plantloop_sh Demand Branch 1,           !- Branch Name 2
  plantloop_sh Demand Branch 2,           !- Branch Name 2
  plantloop_sh Demand Bypass Branch;      !- Inlet Branch Name 4

Branch,
  plantloop_sh Demand Inlet Branch,       !- Name
  ,                                       !- Pressure Drop Curve Name
  Pipe:Adiabatic,                         !- Component Object Type 1
  plantloop_sh Demand Inlet Pipe,         !- Component Name 1
  node_sh_6,                              !- Component Inlet Node Name 1
  plantloop_sh Demand Inlet Pipe Node;    !- Component Outlet Node Name 1

Pipe:Adiabatic,
  plantloop_sh Demand Inlet Pipe,         !- Name
  node_sh_6,                              !- Inlet Node Name
  plantloop_sh Demand Inlet Pipe Node;    !- Outlet Node Name

! ===========================================================================
! IF THERE'S RADIANT FLOOR -> ADD RADIANT FLOOR OBJECT; IF NO RADIANT FLOOR -> ADD BASEBOARD RADIANT CONVECTIVE (RADIATORS) OBJECT
! ===========================================================================

 ! (e.g. if 4 fls TOTAL_FLOORS_LIST=[0...3])

Branch,
  plantloop_sh Demand Branch 0,           !- Name
  ,                                       !- Pressure Drop Curve Name
 ! RADIATORS
  ZoneHVAC:Baseboard:RadiantConvective:Water,
  emitter_fl0_thz0,                  !- Component Name 1
  node_sh_7_0,                            !- Component Inlet Node Name 1
  node_sh_8_0;                            !- Component Outlet Node Name 1

! ######
! FLOOR 0 - HVAC EMITTER: RADIANT FLOOR
! ######

ZoneHVAC:EquipmentList,
  fl0_thz0 Equipment List,                !- Name
  SequentialLoad,                         !- Load Distribution Scheme
 ! RADIATORS
  ZoneHVAC:Baseboard:RadiantConvective:Water,
  emitter_fl0_thz0,         !- Zone Equipment Name 1
  1,                                      !- Zone Equipment Cooling Sequence 1
  1,                                      !- Zone Equipment Heating or No-Load Sequence 1
  ,                                       !- Zone Equipment Sequential Cooling Fraction Schedule Name 1
  ;                                       !- Zone Equipment Sequential Heating Fraction Schedule Name 1

 ! radiators

ZoneHVAC:Baseboard:RadiantConvective:Water,
  emitter_fl0_thz0,         !- Name
  emitter_fl0_thz0 Design,  !- Design Object
  schedule_availability_emitter,          !- Availability Schedule Name
  node_sh_7_0,              !- Inlet Node Name
  node_sh_8_0,              !- Outlet Node Name
  37.5,                                     !- Rated Average Water Temperature {C} VAR
  0.063,                                  !- Rated Water Mass Flow Rate {kg/s}
  Autosize,                               !- Heating Design Capacity {W}
  AutoSize,                               !- Maximum Water Flow Rate {m3/s}
  fl0_thz0_GroundFloor,           !- Surface Name 1
  0.035,                                  !- Fraction of Radiant Energy to Surface 1
  fl0_thz0_Wall_1,                      !- Surface Name 2
  0.09625,                                !- Fraction of Radiant Energy to Surface 2
  fl0_thz0_Wall_0,                      !- Surface Name 3
  0.09625,                                !- Fraction of Radiant Energy to Surface 3
  fl0_thz0_Roof,                        !- Surface Name 4
  0.28,                                   !- Fraction of Radiant Energy to Surface 4
  fl0_thz0_Wall_2,                      !- Surface Name 5
  0.09625,                                !- Fraction of Radiant Energy to Surface 5
  fl0_thz0_Wall_3,                      !- Surface Name 6
  0.09625;                                !- Fraction of Radiant Energy to Surface 6

ZoneHVAC:Baseboard:RadiantConvective:Water:Design,
  emitter_fl0_thz0 Design, !- Name
  HeatingDesignCapacity,                  !- Heating Design Capacity Method
  ,                                      !- Heating Design Capacity Per Floor Area {W/m2}
  1,                                      !- Fraction of Autosized Heating Design Capacity
  0.2,                                    !- Convergence Tolerance (0.2 is ok)
  0.2,                                    !- Fraction Radiant
  0.3;                                    !- Fraction of Radiant Energy Incident on People

 ! (e.g. if 4 fls TOTAL_FLOORS_LIST=[0...3])

Branch,
  plantloop_sh Demand Branch 1,           !- Name
  ,                                       !- Pressure Drop Curve Name
 ! RADIATORS
  ZoneHVAC:Baseboard:RadiantConvective:Water,
  emitter_fl1_thz0,                  !- Component Name 1
  node_sh_7_1,                            !- Component Inlet Node Name 1
  node_sh_8_1;                            !- Component Outlet Node Name 1

! ######
! FLOOR 0 - HVAC EMITTER: RADIANT FLOOR
! ######

ZoneHVAC:EquipmentList,
  fl1_thz0 Equipment List,                !- Name
  SequentialLoad,                         !- Load Distribution Scheme
 ! RADIATORS
  ZoneHVAC:Baseboard:RadiantConvective:Water,
  emitter_fl1_thz0,         !- Zone Equipment Name 1
  1,                                      !- Zone Equipment Cooling Sequence 1
  1,                                      !- Zone Equipment Heating or No-Load Sequence 1
  ,                                       !- Zone Equipment Sequential Cooling Fraction Schedule Name 1
  ;                                       !- Zone Equipment Sequential Heating Fraction Schedule Name 1

 ! radiators

ZoneHVAC:Baseboard:RadiantConvective:Water,
  emitter_fl1_thz0,         !- Name
  emitter_fl1_thz0 Design,  !- Design Object
  schedule_availability_emitter,          !- Availability Schedule Name
  node_sh_7_1,              !- Inlet Node Name
  node_sh_8_1,              !- Outlet Node Name
  37.5,                                     !- Rated Average Water Temperature {C} VAR
  0.063,                                  !- Rated Water Mass Flow Rate {kg/s}
  Autosize,                               !- Heating Design Capacity {W}
  AutoSize,                               !- Maximum Water Flow Rate {m3/s}
  fl1_thz0_GroundFloor,           !- Surface Name 1
  0.035,                                  !- Fraction of Radiant Energy to Surface 1
  fl1_thz0_Wall_1,                      !- Surface Name 2
  0.09625,                                !- Fraction of Radiant Energy to Surface 2
  fl1_thz0_Wall_0,                      !- Surface Name 3
  0.09625,                                !- Fraction of Radiant Energy to Surface 3
  fl1_thz0_Roof,                        !- Surface Name 4
  0.28,                                   !- Fraction of Radiant Energy to Surface 4
  fl1_thz0_Wall_2,                      !- Surface Name 5
  0.09625,                                !- Fraction of Radiant Energy to Surface 5
  fl1_thz0_Wall_3,                      !- Surface Name 6
  0.09625;                                !- Fraction of Radiant Energy to Surface 6

ZoneHVAC:Baseboard:RadiantConvective:Water:Design,
  emitter_fl1_thz0 Design, !- Name
  HeatingDesignCapacity,                  !- Heating Design Capacity Method
  ,                                      !- Heating Design Capacity Per Floor Area {W/m2}
  1,                                      !- Fraction of Autosized Heating Design Capacity
  0.2,                                    !- Convergence Tolerance (0.2 is ok)
  0.2,                                    !- Fraction Radiant
  0.3;                                    !- Fraction of Radiant Energy Incident on People

 ! (e.g. if 4 fls TOTAL_FLOORS_LIST=[0...3])

Branch,
  plantloop_sh Demand Branch 2,           !- Name
  ,                                       !- Pressure Drop Curve Name
 ! RADIATORS
  ZoneHVAC:Baseboard:RadiantConvective:Water,
  emitter_fl2_thz0,                  !- Component Name 1
  node_sh_7_2,                            !- Component Inlet Node Name 1
  node_sh_8_2;                            !- Component Outlet Node Name 1

! ######
! FLOOR 0 - HVAC EMITTER: RADIANT FLOOR
! ######

ZoneHVAC:EquipmentList,
  fl2_thz0 Equipment List,                !- Name
  SequentialLoad,                         !- Load Distribution Scheme
 ! RADIATORS
  ZoneHVAC:Baseboard:RadiantConvective:Water,
  emitter_fl2_thz0,         !- Zone Equipment Name 1
  1,                                      !- Zone Equipment Cooling Sequence 1
  1,                                      !- Zone Equipment Heating or No-Load Sequence 1
  ,                                       !- Zone Equipment Sequential Cooling Fraction Schedule Name 1
  ;                                       !- Zone Equipment Sequential Heating Fraction Schedule Name 1

 ! radiators

ZoneHVAC:Baseboard:RadiantConvective:Water,
  emitter_fl2_thz0,         !- Name
  emitter_fl2_thz0 Design,  !- Design Object
  schedule_availability_emitter,          !- Availability Schedule Name
  node_sh_7_2,              !- Inlet Node Name
  node_sh_8_2,              !- Outlet Node Name
  37.5,                                     !- Rated Average Water Temperature {C} VAR
  0.063,                                  !- Rated Water Mass Flow Rate {kg/s}
  Autosize,                               !- Heating Design Capacity {W}
  AutoSize,                               !- Maximum Water Flow Rate {m3/s}
  fl2_thz0_GroundFloor,           !- Surface Name 1
  0.035,                                  !- Fraction of Radiant Energy to Surface 1
  fl2_thz0_Wall_1,                      !- Surface Name 2
  0.09625,                                !- Fraction of Radiant Energy to Surface 2
  fl2_thz0_Wall_0,                      !- Surface Name 3
  0.09625,                                !- Fraction of Radiant Energy to Surface 3
  fl2_thz0_Roof,                        !- Surface Name 4
  0.28,                                   !- Fraction of Radiant Energy to Surface 4
  fl2_thz0_Wall_2,                      !- Surface Name 5
  0.09625,                                !- Fraction of Radiant Energy to Surface 5
  fl2_thz0_Wall_3,                      !- Surface Name 6
  0.09625;                                !- Fraction of Radiant Energy to Surface 6

ZoneHVAC:Baseboard:RadiantConvective:Water:Design,
  emitter_fl2_thz0 Design, !- Name
  HeatingDesignCapacity,                  !- Heating Design Capacity Method
  ,                                      !- Heating Design Capacity Per Floor Area {W/m2}
  1,                                      !- Fraction of Autosized Heating Design Capacity
  0.2,                                    !- Convergence Tolerance (0.2 is ok)
  0.2,                                    !- Fraction Radiant
  0.3;                                    !- Fraction of Radiant Energy Incident on People


! ===========================================================================
! ===========================================================================
  
Branch,
  plantloop_sh Demand Bypass Branch,      !- Name
  ,                                       !- Pressure Drop Curve Name
  Pipe:Adiabatic,                         !- Component Object Type 1
  plantloop_sh Demand Bypass Pipe,        !- Component Name 1
  plantloop_sh Demand Bypass Pipe Inlet Node, !- Component Inlet Node Name 1
  plantloop_sh Demand Bypass Pipe Outlet Node; !- Component Outlet Node Name 1

Pipe:Adiabatic,
  plantloop_sh Demand Bypass Pipe,        !- Name
  plantloop_sh Demand Bypass Pipe Inlet Node, !- Inlet Node Name
  plantloop_sh Demand Bypass Pipe Outlet Node; !- Outlet Node Name

Branch,
  plantloop_sh Demand Outlet Branch,      !- Name
  ,                                       !- Pressure Drop Curve Name
  Pipe:Adiabatic,                         !- Component Object Type 1
  plantloop_sh Demand Outlet Pipe,        !- Component Name 1
  plantloop_sh Demand Outlet Pipe Node,   !- Component Inlet Node Name 1
  node_sh_9;                              !- Component Outlet Node Name 1

Pipe:Adiabatic,
  plantloop_sh Demand Outlet Pipe,        !- Name
  plantloop_sh Demand Outlet Pipe Node,   !- Inlet Node Name
  node_sh_9;                              !- Outlet Node Name

PlantEquipmentOperationSchemes,
  plantloop_sh Operation Schemes,         !- Name
  PlantEquipmentOperation:HeatingLoad,    !- Control Scheme Object Type 1
  plantloop_sh Heating Operation Scheme,  !- Control Scheme Name 1
  Always On Discrete;                     !- Control Scheme Schedule Name 1

PlantEquipmentOperation:HeatingLoad,
  plantloop_sh Heating Operation Scheme,  !- Name
  0,                                      !- Load Range Lower Limit 1 {W}
  1000000000,                             !- Load Range Upper Limit 1 {W}
  plantloop_sh Heating Equipment List;    !- Range Equipment List Name 1

! ###################################################################################
! ###################################################################################
! ###################################################################################

! ######
! HVAC - SOLAR COLLECTOR TO HX 
! ######

PlantLoop,
  plantloop_sol_hx,                       !- Name
  Water,                                  !- Fluid Type
  ,                                       !- User Defined Fluid Type
  plantloop_sol_hx Operation Schemes,     !- Plant Equipment Operation Scheme Name
  node_sol_hx_5,                          !- Loop Temperature Setpoint Node Name
  100,                                    !- Maximum Loop Temperature {C}
  0,                                      !- Minimum Loop Temperature {C}
  Autosize,                               !- Maximum Loop Flow Rate {m3/s}
  0,                                      !- Minimum Loop Flow Rate {m3/s}
  Autocalculate,                          !- Plant Loop Volume {m3}
  node_sol_hx_1,                          !- Plant Side Inlet Node Name
  node_sol_hx_5,                          !- Plant Side Outlet Node Name
  plantloop_sol_hx Supply Branches,       !- Plant Side Branch List Name
  plantloop_sol_hx Supply Connector List, !- Plant Side Connector List Name
  node_sol_hx_6,                          !- Demand Side Inlet Node Name
  node_sol_hx_9,                          !- Demand Side Outlet Node Name
  plantloop_sol_hx Demand Branches,       !- Demand Side Branch List Name
  plantloop_sol_hx Demand Connector List, !- Demand Side Connector List Name
  SequentialLoad,                                !- Load Distribution Scheme
  plantloop_sol_hx_AvailabilityManagerAssignmentList,  !- Availability Manager List Name
  SingleSetpoint,                         !- Plant Loop Demand Calculation Scheme
  None;                                   !- Common Pipe Simulation

! ===========================================================================
! IF THERE'S SOLAR COLLECTOR -> AVAILABILITY IS ON; IF NO SOLAR COLLECTOR -> AVAILABILITY IS OFF
! ===========================================================================


AvailabilityManagerAssignmentList,
  plantloop_sol_hx_AvailabilityManagerAssignmentList, !- Name
  AvailabilityManager:DifferentialThermostat, !- Availability Manager Object Type 2
  plantloop_sol_hx_availabilityManager;   !- Availability Manager Name 2


AvailabilityManager:DifferentialThermostat,
  plantloop_sol_hx_availabilityManager,   !- Name
  node_sol_hx_4_0,                        !- Hot Node Name
  node_hx_dhw_2,                          !- Cold Node Name
  10,                                     !- Temperature Difference On Limit {deltaC}
  2;                                      !- Temperature Difference Off Limit {deltaC}

Schedule:Constant,
  schedule_hx_sol_availability,          !- Name
  ,                                       !- Schedule Type Limits Name
  1;                                     !- Hourly Value (= 0 if no solar)

! The solar loop starts circulating when the collector outlet is 10 °C hotter than the tank return.
! It stops when that difference falls below 2 °C.
! Between 2 °C and 10 °C, the "EMS" remembers its previous state (hysteresis).







! ===========================================================================
! ===========================================================================

Sizing:Plant,
  plantloop_sol_hx,                       !- Plant or Condenser Loop Name
  Heating,                                !- Loop Type
  90,                                     !- Design Loop Exit Temperature {C}
  2,                                     !- Loop Design Temperature Difference {deltaC}
  NonCoincident,                          !- Sizing Option
  1,                                      !- Zone Timesteps in Averaging Window
  None;                                   !- Coincident Sizing Factor Mode

SetpointManager:Scheduled,
  setpoint_loop_sol_hx,                   !- Name
  Temperature,                            !- Control Variable
  schedule_setpoint_loop_sol_hx,          !- Schedule Name
  node_sol_hx_5;                          !- Setpoint Node or NodeList Name

Schedule:Constant,
  schedule_setpoint_loop_sol_hx,          !- Name
  ,                                       !- Schedule Type Limits Name
  90;                                     !- Hourly Value

BranchList,
  plantloop_sol_hx Supply Branches,       !- Name
  plantloop_sol_hx Supply Inlet Branch,   !- Branch Name 1
  plantloop_sol_hx Supply Branch 1,       !- Branch Name 2
  plantloop_sol_hx Supply Branch 2,       !- Branch Name 3
  plantloop_sol_hx Supply Outlet Branch;  !- Branch Name 4

ConnectorList,
  plantloop_sol_hx Supply Connector List, !- Name
  Connector:Splitter,                     !- Connector Object Type 1
  plantloop_sol_hx Supply Splitter,       !- Connector Name 1
  Connector:Mixer,                        !- Connector Object Type 2
  plantloop_sol_hx Supply Mixer;          !- Connector Name 2

Connector:Splitter,
  plantloop_sol_hx Supply Splitter,       !- Name
  plantloop_sol_hx Supply Inlet Branch,   !- Inlet Branch Name
  plantloop_sol_hx Supply Branch 1,       !- Outlet Branch Name 1
  plantloop_sol_hx Supply Branch 2;       !- Outlet Branch Name 2

Connector:Mixer,
  plantloop_sol_hx Supply Mixer,          !- Name
  plantloop_sol_hx Supply Outlet Branch,  !- Outlet Branch Name
  plantloop_sol_hx Supply Branch 1,       !- Inlet Branch Name 1
  plantloop_sol_hx Supply Branch 2;       !- Inlet Branch Name 2

Branch,
  plantloop_sol_hx Supply Inlet Branch,   !- Name
  ,                                       !- Pressure Drop Curve Name
  Pump:VariableSpeed,                     !- Component Object Type 1
  pump_sol_hx,                            !- Component Name 1
  node_sol_hx_1,                          !- Component Inlet Node Name 1
  node_sol_hx_2;                          !- Component Outlet Node Name 1

Pump:VariableSpeed,
  pump_sol_hx,                            !- Name
  node_sol_hx_1,                          !- Inlet Node Name
  node_sol_hx_2,                          !- Outlet Node Name
  Autosize,                               !- Design Maximum Flow Rate {m3/s}
  20000,                                 !- Design Pump Head {Pa} ( def. 179352)
  Autosize,                               !- Design Power Consumption {W}
  0.9,                                    !- Motor Efficiency
  0,                                      !- Fraction of Motor Inefficiencies to Fluid Stream
  0,                                      !- Coefficient 1 of the Part Load Performance Curve
  1,                                      !- Coefficient 2 of the Part Load Performance Curve
  0,                                      !- Coefficient 3 of the Part Load Performance Curve
  0,                                      !- Coefficient 4 of the Part Load Performance Curve
  0,                                      !- Design Minimum Flow Rate {m3/s}
  Intermittent,                             !- Pump Control Type
  ,                                       !- Pump Flow Rate Schedule Name
  ,                                       !- Pump Curve Name
  ,                                       !- Impeller Diameter {m}
  ,                                       !- VFD Control Type
  ,                                       !- Pump RPM Schedule Name
  ,                                       !- Minimum Pressure Schedule {Pa}
  ,                                       !- Maximum Pressure Schedule {Pa}
  ,                                       !- Minimum RPM Schedule {rev/min}
  ,                                       !- Maximum RPM Schedule {rev/min}
  ,                                       !- Zone Name
  0.5,                                    !- Skin Loss Radiative Fraction
  PowerPerFlowPerPressure,                !- Design Power Sizing Method
  348701.1,                               !- Design Electric Power per Unit Flow Rate {W/(m3/s)}
  1.282051282,                            !- Design Shaft Power per Unit Flow Rate per Unit Head {W/((m3/s)-Pa)}
  0,                                      !- Design Minimum Flow Rate Fraction
  General;                                !- End-Use Subcategory

Branch,
  plantloop_sol_hx Supply Branch 1,       !- Name
  ,                                       !- Pressure Drop Curve Name
  SolarCollector:FlatPlate:Water,         !- Component Object Type 1
  solar_collector_flatPlate,       !- Component Name 1
  node_sol_hx_3_0,                        !- Component Inlet Node Name 1
  node_sol_hx_4_0;                        !- Component Outlet Node Name 1

SolarCollector:FlatPlate:Water,
  solar_collector_flatPlate,              !- Name
  solar_collector_flatPlate_performance,  !- SolarCollectorPerformance Name
  solar_panels_surface_0,                 !- Surface Name
  node_sol_hx_3_0,                        !- Inlet Node Name
  node_sol_hx_4_0;                        !- Outlet Node Name

!SolarCollectorPerformance:FlatPlate,
!  solar_collector_flatPlate_performance,  !- Name
!  2.212,                                  !- Gross Area {m2}
!  Water,                                  !- Test Fluid
!  3.85e-05,                               !- Test Flow Rate {m3/s}
!  Inlet,                                  !- Test Correlation Type
!  0.638,                                  !- Coefficient 1 of Efficiency Equation {dimensionless}
!  -4.2645,                                !- Coefficient 2 of Efficiency Equation {W/m2-K}
!  -0.0297,                                !- Coefficient 3 of Efficiency Equation {W/m2-K2}
!  0.0248,                                 !- Coefficient 2 of Incident Angle Modifier
!  -0.0861;                                !- Coefficient 3 of Incident Angle Modifier

SolarCollectorPerformance:FlatPlate,
  solar_collector_flatPlate_performance,  !- Name
  3.7162,                                  !- Gross Area {m2}
  Water,                                  !- Test Fluid
  3.85e-05,                               !- Test Flow Rate {m3/s}
  Inlet,                                  !- Test Correlation Type
  0.691,                                  !- Coefficient 1 of Efficiency Equation {dimensionless}
  -3.396,                                !- Coefficient 2 of Efficiency Equation {W/m2-K}
  -0.00193,                                !- Coefficient 3 of Efficiency Equation {W/m2-K2}
  -0.1939,                                 !- Coefficient 2 of Incident Angle Modifier
  -0.0055;                                !- Coefficient 3 of Incident Angle Modifier

!Shading:Site:Detailed,
!  solar_panels_surface_0,                 !- Name
!  ,                                       !- Transmittance Schedule Name
!  ,                                       !- Number of Vertices
!  0, 2.2, 8.3,                            !- X,Y,Z Vertex 1 {m}
!  0, 0, 7.2,                              !- X,Y,Z Vertex 2 {m}
!  2.72727272727273, 0, 7.2,               !- X,Y,Z Vertex 3 {m}
!  2.72727272727273, 2.2, 8.3;             !- X,Y,Z Vertex 4 {m}

Branch,
  plantloop_sol_hx Supply Branch 2,       !- Name
  ,                                       !- Pressure Drop Curve Name
  TemperingValve,                         !- Component Object Type 1
  Tempering Valve,                        !- Component Name 1
  node_sol_hx_3_1,                        !- Component Inlet Node Name 1
  node_sol_hx_4_1;                        !- Component Outlet Node Name 1

TemperingValve,
  Tempering Valve,                        !- Name
  node_sol_hx_3_1,                        !- Inlet Node Name
  node_sol_hx_4_1,                        !- Outlet Node Name
  node_sol_hx_4_0,                        !- Stream 2 Source Node Name
  node_sol_hx_5,                          !- Temperature Setpoint Node Name
  node_sol_hx_2;                          !- Pump Outlet Node Name

Branch,
  plantloop_sol_hx Supply Outlet Branch,  !- Name
  ,                                       !- Pressure Drop Curve Name
  Pipe:Adiabatic,                         !- Component Object Type 1
  plantloop_sol_hx Supply Outlet Pipe,    !- Component Name 1
  plantloop_sol_hx Supply Outlet Pipe Node, !- Component Inlet Node Name 1
  node_sol_hx_5;                          !- Component Outlet Node Name 1

Pipe:Adiabatic,
  plantloop_sol_hx Supply Outlet Pipe,    !- Name
  plantloop_sol_hx Supply Outlet Pipe Node, !- Inlet Node Name
  node_sol_hx_5;                          !- Outlet Node Name

BranchList,
  plantloop_sol_hx Demand Branches,       !- Name
  plantloop_sol_hx Demand Inlet Branch,   !- Branch Name 1
  plantloop_sol_hx Demand Branch 1,       !- Branch Name 2
  plantloop_sol_hx Demand Bypass Branch,  !- Branch Name 3
  plantloop_sol_hx Demand Outlet Branch;  !- Branch Name 4

ConnectorList,
  plantloop_sol_hx Demand Connector List, !- Name
  Connector:Splitter,                     !- Connector Object Type 1
  plantloop_sol_hx Demand Splitter,       !- Connector Name 1
  Connector:Mixer,                        !- Connector Object Type 2
  plantloop_sol_hx Demand Mixer;          !- Connector Name 2

Connector:Splitter,
  plantloop_sol_hx Demand Splitter,       !- Name
  plantloop_sol_hx Demand Inlet Branch,   !- Inlet Branch Name
  plantloop_sol_hx Demand Branch 1,       !- Outlet Branch Name 1
  plantloop_sol_hx Demand Bypass Branch;  !- Outlet Branch Name 2

Connector:Mixer,
  plantloop_sol_hx Demand Mixer,          !- Name
  plantloop_sol_hx Demand Outlet Branch,  !- Outlet Branch Name
  plantloop_sol_hx Demand Branch 1,       !- Inlet Branch Name 1
  plantloop_sol_hx Demand Bypass Branch;  !- Inlet Branch Name 2

Branch,
  plantloop_sol_hx Demand Inlet Branch,   !- Name
  ,                                       !- Pressure Drop Curve Name
  Pipe:Adiabatic,                         !- Component Object Type 1
  plantloop_sol_hx Demand Inlet Pipe,     !- Component Name 1
  node_sol_hx_6,                          !- Component Inlet Node Name 1
  plantloop_sol_hx Demand Inlet Pipe Node; !- Component Outlet Node Name 1

Pipe:Adiabatic,
  plantloop_sol_hx Demand Inlet Pipe,     !- Name
  node_sol_hx_6,                          !- Inlet Node Name
  plantloop_sol_hx Demand Inlet Pipe Node; !- Outlet Node Name

Branch,
  plantloop_sol_hx Demand Branch 1,       !- Name
  ,                                       !- Pressure Drop Curve Name
  HeatExchanger:FluidToFluid,             !- Component Object Type 1
  hx_sol,                                 !- Component Name 1
  node_sol_hx_7,                          !- Component Inlet Node Name 1
  node_sol_hx_8;                          !- Component Outlet Node Name 1

Branch,
  plantloop_sol_hx Demand Bypass Branch,  !- Name
  ,                                       !- Pressure Drop Curve Name
  Pipe:Adiabatic,                         !- Component Object Type 1
  plantloop_sol_hx Demand Bypass Pipe,    !- Component Name 1
  plantloop_sol_hx Demand Bypass Pipe Inlet Node, !- Component Inlet Node Name 1
  plantloop_sol_hx Demand Bypass Pipe Outlet Node; !- Component Outlet Node Name 1

Pipe:Adiabatic,
  plantloop_sol_hx Demand Bypass Pipe,    !- Name
  plantloop_sol_hx Demand Bypass Pipe Inlet Node, !- Inlet Node Name
  plantloop_sol_hx Demand Bypass Pipe Outlet Node; !- Outlet Node Name

Branch,
  plantloop_sol_hx Demand Outlet Branch,  !- Name
  ,                                       !- Pressure Drop Curve Name
  Pipe:Adiabatic,                         !- Component Object Type 1
  plantloop_sol_hx Demand Outlet Pipe,    !- Component Name 1
  plantloop_sol_hx Demand Outlet Pipe Node, !- Component Inlet Node Name 1
  node_sol_hx_9;                          !- Component Outlet Node Name 1

Pipe:Adiabatic,
  plantloop_sol_hx Demand Outlet Pipe,    !- Name
  plantloop_sol_hx Demand Outlet Pipe Node, !- Inlet Node Name
  node_sol_hx_9;                          !- Outlet Node Name

PlantEquipmentOperationSchemes,
  plantloop_sol_hx Operation Schemes,     !- Name
  PlantEquipmentOperation:HeatingLoad,    !- Control Scheme Object Type 1
  plantloop_sol_hx Heating Operation Scheme, !- Control Scheme Name 1
  Always On Discrete;                     !- Control Scheme Schedule Name 1

PlantEquipmentOperation:HeatingLoad,
  plantloop_sol_hx Heating Operation Scheme, !- Name
  0,                                      !- Load Range Lower Limit 1 {W}
  1000000000,                             !- Load Range Upper Limit 1 {W}
  plantloop_sol_hx Heating Equipment List; !- Range Equipment List Name 1

PlantEquipmentList,
  plantloop_sol_hx Heating Equipment List, !- Name
  SolarCollector:FlatPlate:Water,         !- Equipment Object Type 1
  solar_collector_flatPlate;       !- Equipment Name 1

Schedule:Constant,
  Always On Discrete,                     !- Name
  OnOff,                                  !- Schedule Type Limits Name
  1;                                      !- Hourly Value

! ###################################################################################
! ###################################################################################
! ###################################################################################









! ################
! MATERIALS AND CONSTRUCTIONS
! ################



MATERIAL,
    Gr2_L1,    !- Name
    Rough,                    !- Roughness
    0.015,                    !- Thickness
    0.7,                      !- Conductivity
    1600,                     !- Density
    1000,                     !- Specific Heat
    0.9,                      !- Thermal Absorptance
    0.6,                      !- Solar Absorptance
    0.6;                      !- Visible Absorptance

MATERIAL,
    Gr2_L2,    !- Name
    Rough,                    !- Roughness
    0.24,                     !- Thickness
    0.87,                     !- Conductivity
    930,                      !- Density
    840,                      !- Specific Heat
    0.9,                      !- Thermal Absorptance
    0.6,                      !- Solar Absorptance
    0.6;                      !- Visible Absorptance

MATERIAL,
    Gr2_L3,    !- Name
    Rough,                    !- Roughness
    0.01,                     !- Thickness
    0.04,                     !- Conductivity
    240,                      !- Density
    760,                      !- Specific Heat
    0.9,                      !- Thermal Absorptance
    0.6,                      !- Solar Absorptance
    0.6;                      !- Visible Absorptance

MATERIAL,
    Gr2_L4,    !- Name
    Rough,                    !- Roughness
    0.025,                    !- Thickness
    0.09,                     !- Conductivity
    750,                      !- Density
    1300,                     !- Specific Heat
    0.9,                      !- Thermal Absorptance
    0.6,                      !- Solar Absorptance
    0.6;                      !- Visible Absorptance

MATERIAL,
    Gr2_L5,    !- Name
    Rough,                    !- Roughness
    0.02,                     !- Thickness
    0.47,                     !- Conductivity
    700,                      !- Density
    1880,                     !- Specific Heat
    0.9,                      !- Thermal Absorptance
    0.6,                      !- Solar Absorptance
    0.6;                      !- Visible Absorptance

MATERIAL,
    internal_ceiling_L1,    !- Name
    Rough,                    !- Roughness
    0.1,                      !- Thickness
    1.4,                      !- Conductivity
    2100,                     !- Density
    840,                      !- Specific Heat
    0.9,                      !- Thermal Absorptance
    0.6,                      !- Solar Absorptance
    0.6;                      !- Visible Absorptance

CONSTRUCTION,
    Ground_construction_ground,    !- Name
    Gr2_L1,    !- Outside Layer
    Gr2_L2,    !- Layer 2
    Gr2_L3,    !- Layer 3
    Gr2_L4,    !- Layer 4
    Gr2_L5;    !- Layer 5

Material,
  insulation_layer,  !- Name
  Rough,                                  !- Roughness
  0.03,                                 !- Thickness {m}
  0.02,                                   !- Conductivity {W/m-K}
  56.06,                                  !- Density {kg/m3}
  1210,                                   !- Specific Heat {J/kg-K}
  0.9,                                    !- Thermal Absorptance
  0.7,                                    !- Solar Absorptance
  0.7;                                    !- Visible Absorptance

CONSTRUCTION,
    Internal_ceiling,    !- Name
    internal_ceiling_L1,
    insulation_layer;    !- Outside Layer

CONSTRUCTION,
    Ground_construction,    !- Name
    insulation_layer,
    internal_ceiling_L1;    !- Outside Layer



















MATERIAL,
    Ro1_L1,    !- Name
    Rough,                    !- Roughness
    0.008,                    !- Thickness
    0.17,                     !- Conductivity
    1050,                     !- Density
    1000,                     !- Specific Heat
    0.9,                      !- Thermal Absorptance
    0.9,                      !- Solar Absorptance
    0.9;                      !- Visible Absorptance

MATERIAL,
    Ro1_L2,    !- Name
    Rough,                    !- Roughness
    0.11,                     !- Thickness
    0.038,                    !- Conductivity
    15,                       !- Density
    1500,                     !- Specific Heat
    0.9,                      !- Thermal Absorptance
    0.6,                      !- Solar Absorptance
    0.6;                      !- Visible Absorptance

MATERIAL,
    Ro1_L4,    !- Name
    Rough,                    !- Roughness
    0.024,                    !- Thickness
    0.13,                     !- Conductivity
    450,                      !- Density
    1600,                     !- Specific Heat
    0.9,                      !- Thermal Absorptance
    0.6,                      !- Solar Absorptance
    0.6;                      !- Visible Absorptance

MATERIAL:NOMASS,
    Ro1_L3,    !- Name
    Rough,                    !- Roughness
    2.105263e-02,             !- Thermal Resistance
    0.9,                      !- Thermal Absorptance
    0.7,                      !- Solar Absorptance
    0.7;                      !- Visible Absorptance

CONSTRUCTION,
    Roof_construction,    !- Name
    Ro1_L1,    !- Outside Layer
    Ro1_L2,    !- Layer 2
    Ro1_L3,    !- Layer 3
    Ro1_L4;    !- Layer 4









MATERIAL,
    Wa1_L1,    !- Name
    Rough,                    !- Roughness
    0.005,                    !- Thickness
    0.87,                     !- Conductivity
    2085,                     !- Density
    840,                      !- Specific Heat
    0.9,                      !- Thermal Absorptance
    0.6,                      !- Solar Absorptance
    0.6;                      !- Visible Absorptance

MATERIAL,
    Wa1_L2,    !- Name
    Rough,                    !- Roughness
    0.17,                     !- Thickness
    0.038,                    !- Conductivity
    15,                       !- Density
    1500,                     !- Specific Heat
    0.9,                      !- Thermal Absorptance
    0.6,                      !- Solar Absorptance
    0.6;                      !- Visible Absorptance

MATERIAL,
    Wa1_L3,    !- Name
    Rough,                    !- Roughness
    0.125,                    !- Thickness
    0.44,                     !- Conductivity
    1200,                     !- Density
    840,                      !- Specific Heat
    0.9,                      !- Thermal Absorptance
    0.6,                      !- Solar Absorptance
    0.6;                      !- Visible Absorptance

MATERIAL,
    Wa1_L4,    !- Name
    Rough,                    !- Roughness
    0.01,                     !- Thickness
    0.7,                      !- Conductivity
    1100,                     !- Density
    900,                      !- Specific Heat
    0.9,                      !- Thermal Absorptance
    0.6,                      !- Solar Absorptance
    0.6;                      !- Visible Absorptance

CONSTRUCTION,
    Wall_construction,    !- Name
    Wa1_L1,    !- Outside Layer
    Wa1_L2,    !- Layer 2
    Wa1_L3,    !- Layer 3
    Wa1_L4;    !- Layer 4


WINDOWMATERIAL:GLAZING,
    Wi1_L1,    !- Name
    SpectralAverage,          !- Optical Data Type
    ,                         !- Window Glass Spectral Data Set Name
    0.005,                    !- Thickness
    0.775,                    !- Solar Transmittance at Normal Incidence
    0.071,                    !- Front Side Solar Reflectance at Normal Incidence
    0.071,                    !- Back Side Solar Reflectance at Normal Incidence
    0.881,                    !- Visible Transmittance at Normal Incidence
    0.08,                     !- Front Side Visible Reflectance at Normal Incidence
    0.08,                     !- Back Side Visible Reflectance at Normal Incidence
    0,                        !- Infrared Transmittance at Normal Incidence
    0.84,                     !- Front Side Infrared Hemispherical Emissivity
    0.84,                     !- Back Side Infrared Hemispherical Emissivity
    0.9,                      !- Conductivity
    1,                        !- Dirt Correction Factor for Solar and Visible Transmittance
    No,                       !- Solar Diffusing
    72000000000,              !- Youngs modulus
    0.22;                     !- Poissons ratio

WINDOWMATERIAL:GLAZING,
    Wi1_L3,    !- Name
    SpectralAverage,          !- Optical Data Type
    ,                         !- Window Glass Spectral Data Set Name
    0.005,                    !- Thickness
    0.775,                    !- Solar Transmittance at Normal Incidence
    0.071,                    !- Front Side Solar Reflectance at Normal Incidence
    0.071,                    !- Back Side Solar Reflectance at Normal Incidence
    0.881,                    !- Visible Transmittance at Normal Incidence
    0.08,                     !- Front Side Visible Reflectance at Normal Incidence
    0.08,                     !- Back Side Visible Reflectance at Normal Incidence
    0,                        !- Infrared Transmittance at Normal Incidence
    0.84,                     !- Front Side Infrared Hemispherical Emissivity
    0.84,                     !- Back Side Infrared Hemispherical Emissivity
    0.9,                      !- Conductivity
    1,                        !- Dirt Correction Factor for Solar and Visible Transmittance
    No,                       !- Solar Diffusing
    72000000000,              !- Youngs modulus
    0.22;                     !- Poissons ratio

WINDOWMATERIAL:GAS,
    Wi1_L2,    !- Name
    Air,                      !- Gas Type
    0.01;                     !- Thickness

WINDOWMATERIAL:SHADE,
    Shade0101,                !- Name
    0.31,                     !- Solar Transmittance
    0.5,                      !- Solar Reflectance
    0.31,                     !- Visible Transmittance
    0.5,                      !- Visible Reflectance
    0.9,                      !- Infrared Hemispherical Emissivity
    0,                        !- Infrared Transmittance
    0.001,                    !- Thickness
    0.9,                      !- Conductivity
    0.1,                      !- Shade to Glass Distance
    0,                        !- Top Opening Multiplier
    0,                        !- Bottom Opening Multiplier
    0,                        !- LeftSide Opening Multiplier
    0,                        !- RightSide Opening Multiplier
    0;                        !- Airflow Permeability


WindowMaterial:Blind,
  Window Material Blind 1,                !- Name
  Horizontal,                             !- Slat Orientation
  0.025,                                  !- Slat Width {m}
  0.01875,                                !- Slat Separation {m}
  0.001,                                  !- Slat Thickness {m}
  45,                                     !- Slat Angle {deg}
  221,                                    !- Slat Conductivity {W/m-K}
  0,                                      !- Slat Beam Solar Transmittance
  0.5,                                    !- Front Side Slat Beam Solar Reflectance
  0.5,                                    !- Back Side Slat Beam Solar Reflectance
  0,                                      !- Slat Diffuse Solar Transmittance
  0.5,                                    !- Front Side Slat Diffuse Solar Reflectance
  0.5,                                    !- Back Side Slat Diffuse Solar Reflectance
  0,                                      !- Slat Beam Visible Transmittance
  0.5,                                    !- Front Side Slat Beam Visible Reflectance
  0.5,                                    !- Back Side Slat Beam Visible Reflectance
  0,                                      !- Slat Diffuse Visible Transmittance
  0.5,                                    !- Front Side Slat Diffuse Visible Reflectance
  0.5,                                    !- Back Side Slat Diffuse Visible Reflectance
  0,                                      !- Slat Infrared Hemispherical Transmittance
  0.9,                                    !- Front Side Slat Infrared Hemispherical Emissivity
  0.9,                                    !- Back Side Slat Infrared Hemispherical Emissivity
  0.05,                                   !- Blind to Glass Distance {m}
  0.5,                                    !- Blind Top Opening Multiplier
  0.5,                                    !- Blind Bottom Opening Multiplier
  0.5,                                    !- Blind Left Side Opening Multiplier
  0.5,                                    !- Blind Right Side Opening Multiplier
  0,                                      !- Minimum Slat Angle {deg}
  180;                                    !- Maximum Slat Angle {deg}

WindowProperty:FrameAndDivider,
  Frame_construction,           !- Name
  0.04,                                   !- Frame Width {m}
  0,                                      !- Frame Outside Projection {m}
  0,                                      !- Frame Inside Projection {m}
  9.5,                                    !- Frame Conductance {W/m2-K}
  1,                                      !- Ratio of Frame-Edge Glass Conductance to Center-Of-Glass Conductance
  0.5,                                    !- Frame Solar Absorptance
  0.5,                                    !- Frame Visible Absorptance
  0.9,                                    !- Frame Thermal Hemispherical Emissivity
  DividedLite,                            !- Divider Type
  0,                                      !- Divider Width {m}
  0,                                      !- Number of Horizontal Dividers
  0,                                      !- Number of Vertical Dividers
  0,                                      !- Divider Outside Projection {m}
  0,                                      !- Divider Inside Projection {m}
  0,                                      !- Divider Conductance {W/m2-K}
  1,                                      !- Ratio of Divider-Edge Glass Conductance to Center-Of-Glass Conductance
  0,                                      !- Divider Solar Absorptance
  0,                                      !- Divider Visible Absorptance
  0.9,                                    !- Divider Thermal Hemispherical Emissivity
  0.5,                                    !- Outside Reveal Solar Absorptance
  0,                                      !- Inside Sill Depth {m}
  0,                                      !- Inside Sill Solar Absorptance
  0,                                      !- Inside Reveal Depth {m}
  0,                                      !- Inside Reveal Solar Absorptance
  CurtainWall;                            !- NFRC Product Type for Assembly Calculations

CONSTRUCTION,
    Window_construction,    !- Name
    Wi1_L1,    !- Outside Layer
    Wi1_L2,    !- Layer 2
    Wi1_L3;    !- Layer 3






! ################
! OUTPUTS
! ################

!- OUTPUTS

Output:Variable,
  *,                                      !- Key Value
  Boiler Heating Rate,                    !- Variable Name
  Timestep;                               !- Reporting Frequency


Output:Variable,
  *,                                      !- Key Value
  Boiler Diesel Rate,                     !- Variable Name
  Timestep;                               !- Reporting Frequency


Output:Variable,
  *,                                      !- Key Value
  Boiler Electricity Rate,                     !- Variable Name
  Timestep;                               !- Reporting Frequency

Output:Variable,
  ,                                       !- Key Value
  Zone Thermostat Heating Setpoint Temperature, !- Variable Name
  Timestep;                               !- Reporting Frequency

Output:Variable,
  ,                                       !- Key Value
  Site Direct Solar Radiation Rate per Area, !- Variable Name
  Timestep;                               !- Reporting Frequency

Output:Variable,
  ,                                       !- Key Value
  Site Outdoor Air Drybulb Temperature,   !- Variable Name
  Timestep;                               !- Reporting Frequency

Output:VariableDictionary,
  IDF,                                    !- Key Field
  Unsorted;                               !- Sort Option

Output:Table:SummaryReports,
  AllSummary;                             !- Report Name 1

OutputControl:Table:Style,
  CommaAndHTML,                           !- Column Separator (CommaAndHTML)
  JtoKWH;                                 !- Unit Conversion

Output:Variable,
  *,                                      !- Key Value
  Pump Electricity Rate,                  !- Variable Name
  Timestep;                               !- Reporting Frequency

Output:Variable,
  solar_panels_surface_0,                                      !- Key Value
  Surface Outside Face Incident Solar Radiation Rate per Area, !- Variable Name
  Timestep;                               !- Reporting Frequency

Output:Variable,
  *,                                       !- Key Value
  Zone Outdoor Air Wind Speed,   !- Variable Name
  Timestep;                               !- Reporting Frequency

!Output:Variable,
!  *,
!  Zone Mean Radiant Temperature,
!  Timestep; !- Zone Average [C]


Output:Variable,
  *,
  Zone Operative Temperature,
  Timestep; !- Zone Average [C]


Output:Variable,
  *,
  Boiler NaturalGas Rate,
  Timestep; !- HVAC Average [W]

!Output:Variable,
!  *,
!  Zone Air System Sensible Heating Rate, ! https://bigladdersoftware.com/epx/docs/24-2/input-output-reference/group-thermal-zone-description-geometry.html#zone-air-system-sensible-cooling-rate-w
!  Timestep; !- HVAC Average [W]

!Output:Variable,
!  *,
!  Solar Collector Heat Transfer Energy,
!  Timestep; !- HVAC Average [J]


 !- floorsToSimulateList created in 'idf_generator.py'


Output:Meter,
  light_cons:InteriorLights:Electricity:Zone:fl0_thz0,
  Timestep; !- [J]


Output:Meter,
  appliances:InteriorEquipment:Electricity:Zone:fl0_thz0,
  Timestep; !- [J]


Output:Meter,
  Electricity:Zone:fl0_thz0,
  Timestep; !- [J]



 !- floorsToSimulateList created in 'idf_generator.py'


Output:Meter,
  light_cons:InteriorLights:Electricity:Zone:fl1_thz0,
  Timestep; !- [J]


Output:Meter,
  appliances:InteriorEquipment:Electricity:Zone:fl1_thz0,
  Timestep; !- [J]


Output:Meter,
  Electricity:Zone:fl1_thz0,
  Timestep; !- [J]



 !- floorsToSimulateList created in 'idf_generator.py'


Output:Meter,
  light_cons:InteriorLights:Electricity:Zone:fl2_thz0,
  Timestep; !- [J]


Output:Meter,
  appliances:InteriorEquipment:Electricity:Zone:fl2_thz0,
  Timestep; !- [J]


Output:Meter,
  Electricity:Zone:fl2_thz0,
  Timestep; !- [J]



 !- END floor Loop


! HP 
Output:Variable,*,Heat Pump Electricity Rate,Timestep; !- HVAC Average [W]
!Output:Variable,*,Heat Pump Electricity Energy,Timestep; !- HVAC Average [J]
Output:Variable,*,Heat Pump Load Side Heat Transfer Rate,Timestep; !- HVAC Average [W]
!Output:Variable,*,Heat Pump Load Side Heat Transfer Energy,Timestep; !- HVAC Sum [J]
!Output:Variable,*,Water Heater Electricity Rate,Timestep; !- HVAC Average [W]


!Output:Variable,*,System Node Mass Flow Rate,Timestep; !- HVAC Average [kg/s]


! DEB
!Output:Variable,*,System Node Setpoint Temperature,Timestep; !- HVAC Average [C]
!Output:Variable,*,System Node Temperature,Timestep; !- HVAC Average [C]
!Output:Variable,*,Water Use Connections Hot Water Volume,Timestep; !- HVAC Sum [m3]
!Output:Variable,*,Schedule Value,Timestep; !- Zone Average []
!Output:Variable,*,Fluid Heat Exchanger Operation Status,Timestep; !- HVAC Average []
!Output:Variable,*,Solar Collector Heat Transfer Rate,Timestep; !- HVAC Average [W]
!Output:Variable,*,Water Heater Tank Temperature,Timestep;
!Output:Variable,*,Solar Collector Heat Transfer Rate,Timestep;
!Output:Variable,*,Zone Radiant HVAC Heating Rate,Timestep;
!Output:Meter,Baseboard:PlantLoopHeatingDemand,Timestep;
!Output:Variable,*,Baseboard Total Heating Rate,Timestep;

! DHW DEMAND
!Output:Meter,WaterSystems:PlantLoopHeatingDemand,Timestep; !- [J] # DHW energy demand https://support.designbuilder.co.uk/support/solutions/articles/103000354109-separate-energy-consumption-for-space-heating-and-domestic-hot-water-dhw-
Output:Variable,*,Water Use Connections Plant Hot Water Energy,Timestep; !- HVAC Sum [J]


! SH DEMAND
Output:Meter,PlantLoopHeatingDemand:HVAC,Timestep; !- [J] # SH energy demand THIS MATCHES THE FINAL ENERGY SUPPLIED FOR SH
!Output:Meter,EnergyTransfer:HVAC,Timestep; !- [J] # this takes into account heat produced by HP + PUMPS
!Output:Meter,Baseboard:EnergyTransfer,Timestep; !- [J]
! Output:Variable,*,Zone Radiant HVAC Heating Fluid Energy,Timestep; !- HVAC Sum [J] NO NEED EQUIVALENT TO Zone Radiant HVAC Heating Energy

! STORAGE TEMPERATURES TO CHECK FLEXIBILITY
Output:Variable,*,Water Heater Tank Temperature,Timestep;


! HP - OTHER
!Output:Meter,Heat Pump:Heating:Electricity,Timestep; !- [J] 
!Output:Meter,Heating:Electricity,Timestep; !- [J]
!Output:Meter,HeatingCoils:EnergyTransfer,Timestep; !- [J]

! Where the extra heat comes from? from pumps, apparently
!Output:Variable,*,Pump Fluid Heat Gain Rate,Timestep; !- HVAC Average [W]
!Output:Variable,*,Heat Pump Load Side Heat Transfer Rate,Timestep; !- HVAC Average [W]
!Output:Variable,*,Heat Pump Source Side Heat Transfer Rate,Timestep; !- HVAC Average [W]

!Output:Variable,*,Plant Supply Side Heating Demand Rate,Timestep; !- HVAC Average [W]

!Output:Variable,*,Water Use Connections Total Volume,Timestep; !- HVAC Sum [m3]
!Output:Variable,*,Water Use Equipment Heating Rate,Timestep; !- HVAC Average [W]
!Output:Variable,*,Water Use Equipment Hot Water Temperature,Timestep; !- HVAC Average [C]
!Output:Variable,*,Surface Window Shading Device Absorbed Solar Radiation Rate,Timestep;


! To check tank losses
!Output:Variable,*,Water Heater Heat Loss Rate,Timestep; !- HVAC Average [W]

! to check how much heat is delivering the tank to the radiant floor
!Output:Variable,*,Water Heater Use Side Heat Transfer Rate,Timestep; !- HVAC Average [W]

!Output:Variable,*,Fluid Heat Exchanger Heat Transfer Rate,Timestep; !- HVAC Average [W]

OutputControl:Files,
    No,                     !- Output CSV
    No,                     !- Output MTR
    Yes,                     !- Output ESO
    No,                     !- Output EIO
    No,                     !- Output Tabular # yes
    No,                     !- Output SQLite
    No,                     !- Output JSON
    No,                      !- Output AUDIT
    No,                     !- Output Zone Sizing
    No,                     !- Output System Sizing
    No,                     !- Output DXF
    No,                     !- Output BND
    No,                     !- Output RDD
    No,                     !- Output MDD RDD # yes
    No,                     !- Output MTD MDD # yes
    No,                     !- Output END
    No,                     !- Output SHD
    No,                     !- Output DFS
    No,                     !- Output GLHE
    No,                     !- Output DelightIn
    No,                     !- Output DelightELdmp
    No,                     !- Output DelightDFdmp
    No,                     !- Output EDD
    No,                     !- Output DBG
    No,                     !- Output PerfLog
    No,                     !- Output SLN
    No,                     !- Output SCI
    No,                     !- Output WRL
    No,                     !- Output Screen
    No,                     !- Output ExtShd
    No;                     !- Output Tarcog
